#######################################################
#CASTEP cell file: /home/u2093113/Documents/kART/CASTEP/castep.cell
#Created using the Atomic Simulation Environment (ASE)#
#######################################################

%BLOCK LATTICE_CART
14.464828  0.000000  0.000000
 0.000000 14.464828  0.000000
 0.000000  0.000000 14.464828
%ENDBLOCK LATTICE_CART

%BLOCK POSITIONS_ABS
Al  8.222457 13.564603  2.732778
Al 11.839211 13.561374  2.711910
Al  8.248755  2.734961  2.730347
Al 11.851779  2.733893  2.721942
Al  8.285815  6.344149  2.655154
Al 11.880963  6.334420  2.692653
Al  8.235299  9.941345  2.725912
Al 11.853159  9.952635  2.694766
Al  8.223518 13.544897  6.309303
Al 11.836216 13.584418  6.301170
Al  8.183332  2.766537  6.295441
Al 11.859303  2.721995  6.314162
Al  8.379270  6.373722  6.335117
Al 11.871805  6.322630  6.325628
Al  8.294913  9.919690  6.249294
Al 11.873136  9.955263  6.303503
Al  8.249974 13.529977  9.919000
Al 11.827191 13.589526  9.928941
Al  8.233925  2.740270  9.943968
Al 11.824352  2.713189  9.923948
Al  8.285929  6.350721  9.988882
Al 11.897364  6.316887  9.944574
Al  8.346248  9.931653 10.030846
Al 11.839095  9.950310  9.943645
Al  8.253261 13.558889 13.577349
Al 11.811011 13.583195 13.567968
Al  8.207981  2.726901 13.580228
Al 11.836596  2.723522 13.560516
Al  8.225563  6.334305 13.569663
Al 11.840744  6.316408 13.570348
Al  8.238851  9.944400 13.552754
Al 11.870989  9.943342 13.573434
Al  4.770150 11.752840  0.888151
Al  0.824108  9.969252 13.539841
Al  2.799681 11.851851 13.438701
Al  4.666972  8.176753  0.972065
Al  2.784482  8.052634 13.462127
Al  4.601832  4.635988  1.016275
Al  0.988477  4.527277  0.875618
Al  2.850400 11.798088 10.054586
Al  0.879780  6.303125 10.051751
Al  4.717736  4.599650 11.746070
Al  2.787241  4.291485  9.922261
Al  4.789342  0.807434 11.686001
Al  4.701768  2.677375 13.672159
Al  2.728777  0.909857  9.833774
Al  0.801130  0.906715 11.759625
Al  4.557074  9.953311  6.318941
Al  6.371363  9.949797  8.238017
Al  2.647823  9.886183  4.486608
Al  0.907647 11.772898  8.067903
Al  6.225484  6.350462  8.078733
Al  0.908655  8.273792  8.076484
Al  2.952537  6.329768  7.954350
Al  4.808711  2.939693  6.293011
Al  4.818029  0.822350  8.131609
Al  2.686814  0.768254  6.299672
Al  2.702863 11.816859  2.677715
Al  6.250102  6.353469  4.564626
Al  2.786810  6.351966  4.538508
Al  2.795877  0.814505  2.615841
Al  2.740383  0.806548 13.735572
Al  2.703682  2.837522  4.440876
Ni  8.213269  0.909873  4.504612
Ni 10.035920 13.565673  4.516718
Ni 10.045294  0.919112  2.730377
Ni 11.852603  0.920944  4.514498
Ni 13.651907 13.576530  4.492360
Ni 13.632485  0.926556  2.708201
Ni  8.226159  4.610714  4.523926
Ni 10.034942  2.735231  4.525563
Ni 10.063298  4.534119  2.713921
Ni 11.868172  4.525336  4.527883
Ni 13.678475  2.720517  4.514081
Ni 13.667416  4.534685  2.712951
Ni  8.232621  8.081311  4.524199
Ni 10.085169  6.340575  4.498467
Ni 10.043840  8.141652  2.702177
Ni 11.866162  8.147510  4.488180
Ni 13.655861  6.334996  4.513423
Ni 13.671094  8.133914  2.685171
Ni  8.224284 11.753850  4.529840
Ni 10.064863  9.940989  4.496158
Ni 10.025927 11.754899  2.709258
Ni 11.846121 11.761136  4.487683
Ni 13.675815  9.956624  4.479103
Ni 13.661234 11.757422  2.695080
Ni  6.526819  0.882706  9.928494
Ni 10.026301 13.571974  8.107887
Ni 10.017227  0.924718  6.300976
Ni 11.821745  0.928554  8.095830
Ni 13.639167 13.594606  8.108477
Ni 13.660851  0.909750  6.297745
Ni  8.220714  4.617518  8.110972
Ni 10.004144  2.728969  8.108815
Ni 10.044505  4.527076  6.322318
Ni 11.854937  4.506695  8.126792
Ni 13.669477  2.717326  8.116926
Ni 13.682314  4.525919  6.332883
Ni  8.232408  8.153585  8.142782
Ni 10.085492  6.342727  8.152675
Ni 10.091090  8.152059  6.322798
Ni 11.887831  8.124721  8.133751
Ni 13.706583  6.314924  8.130989
Ni 13.649273  8.147527  6.288194
Ni  8.246455 11.663906  8.125335
Ni 10.082782  9.931924  8.125648
Ni 10.053298 11.749136  6.316534
Ni 11.844465 11.791367  8.120816
Ni 13.606435  9.985568  8.144333
Ni 13.612789 11.770120  6.272188
Ni  8.228152  0.906116 11.769701
Ni 10.033698 13.574855 11.748439
Ni 10.010589  0.916977  9.925468
Ni 11.841263  0.921011 11.745964
Ni 13.615623 13.542814 11.745175
Ni 13.611613  0.911627  9.888842
Ni  8.202045  4.534327 11.754658
Ni 10.017723  2.721806 11.752757
Ni 10.035994  4.527379  9.936814
Ni 11.827802  4.516827 11.743116
Ni 13.633352  2.745421 11.744468
Ni 13.664055  4.482428  9.937406
Ni  8.248543  8.141432 11.757070
Ni 10.051092  6.322723 11.765726
Ni 10.074466  8.125077  9.946740
Ni 11.854136  8.126919 11.758513
Ni 13.640833  6.302174 11.792512
Ni 13.667739  8.157988  9.957209
Ni  8.262929 11.741229 11.746285
Ni 10.081992  9.941868 11.782552
Ni 10.060449 11.762257  9.929311
Ni 11.825459 11.764541 11.752163
Ni 13.628450  9.969756 11.720381
Ni 13.626157 11.776617  9.948712
Ni  8.238385  0.920216  0.944504
Ni 10.027049 13.567666  0.923839
Ni 10.028843  0.923919 13.571739
Ni 11.820573  0.910976  0.926049
Ni 13.638122 13.575385  0.907635
Ni 13.605881  0.916727 13.601084
Ni  8.226979  4.520534  0.926075
Ni 10.041127  2.728708  0.916702
Ni 10.024025  4.518954 13.564260
Ni 11.859836  4.524365  0.899003
Ni 13.641515  2.711524  0.900719
Ni 13.651016  4.504952 13.537609
Ni  8.229905  8.150078  0.897167
Ni 10.052664  6.329005  0.892437
Ni 10.046711  8.135443 13.565444
Ni 11.842987  8.139243  0.902521
Ni 13.674224  6.347196  0.871424
Ni 13.642113  8.110529 13.547646
Ni  8.217691 11.755820  0.916181
Ni 10.036126  9.949102  0.902817
Ni 10.040033 11.756969 13.572433
Ni 11.838107 11.765668  0.912205
Ni 13.635988  9.941613  0.914831
Ni 13.597856 11.799728 13.559651
Ni  0.998712  0.916739  4.473865
Ni  2.791014 13.544841  4.493095
Ni  0.943462 13.584062  2.684378
Ni  4.526712  0.972380  4.565637
Ni  6.371253 13.555190  4.533599
Ni  4.582705  2.682914  2.712348
Ni  4.636327 13.528918  2.727762
Ni  0.960744  2.702639  2.687530
Ni  0.944207  4.554554  4.509971
Ni  4.591439  4.513750  4.442451
Ni  6.418270  2.749160  4.452184
Ni  6.424520  4.576177  2.739552
Ni  2.751597  4.564584  2.682984
Ni  0.944190  8.115368  4.513329
Ni  4.552377  6.389384  2.727093
Ni  2.757436  8.161771  2.667392
Ni  4.570523  8.218890  4.500470
Ni  5.500127  5.469243  6.291550
Ni  6.424288  8.138312  2.749216
Ni  0.966269 11.773575  4.483928
Ni  4.569760 10.002746  2.709266
Ni  0.988158  9.947732  2.646517
Ni  4.574830 11.720339  4.508359
Ni  6.407502  9.926665  4.500235
Ni  6.422706 11.742461  2.763570
Ni  2.783924  9.990663  0.814533
Ni  0.948599  0.888503  8.094042
Ni  2.808215 13.535945  8.133804
Ni  0.936403 13.538083  6.280564
Ni  6.458416 13.473753  8.110229
Ni  6.396953  0.925674  6.268091
Ni  4.600098 13.538466  6.303202
Ni  1.053475  4.532768  8.145425
Ni  2.872882  2.587049  8.008921
Ni  2.783840  4.480824  6.306048
Ni  0.993597  2.701613  6.309459
Ni  4.593429  4.483341  8.179077
Ni  8.213233  0.912452  8.081831
Ni  6.443987  2.762863  8.156118
Ni  0.924542  9.994221  6.290804
Ni  0.989123  6.335509  6.342447
Ni  4.565013  8.220871  8.150310
Ni  6.398094  8.150735  6.333695
Ni  2.757924  8.191814  6.325565
Ni  2.753023 10.025555  8.180666
Ni  2.780966 11.761007  6.280910
Ni  4.614905 11.761232  8.116509
Ni  6.404945 11.681503  6.325212
Ni  0.950971 13.563397  9.922726
Ni  6.472319 13.508388 11.759077
Ni  4.657144 13.557988  9.932292
Ni  1.020218  4.443729 11.756550
Ni  0.960797  2.662382  9.919527
Ni  2.865525  2.519036 11.842243
Ni  6.382464  2.723172 11.757652
Ni  6.431579  4.570706  9.907221
Ni  4.648446  2.656729  9.933485
Ni  0.961148  8.155817 11.755566
Ni  2.787108  6.255237 11.686929
Ni  2.706013  8.112919  9.886258
Ni  4.596049  8.126599 11.711048
Ni  6.419163  6.375214 11.758278
Ni  6.404183  8.124867  9.948309
Ni  4.529192  6.343764  9.939341
Ni  0.948091 11.809744 11.758890
Ni  2.759001  9.936027 11.805742
Ni  0.979565 10.013516  9.991615
Ni  4.651070 11.770359 11.761653
Ni  6.404576  9.935239 11.737208
Ni  6.423120 11.724137  9.955523
Ni  4.561579  9.942786  9.996101
Ni  0.927200  0.909483  0.919733
Ni  2.817290 13.452080  0.887853
Ni  2.782604 13.755513 11.736886
Ni  0.933377 13.575441 13.564489
Ni  4.646205  0.852490  0.918355
Ni  6.440688 13.590873  0.917351
Ni  6.450410  0.897208 13.593087
Ni  4.664602 13.558246 13.556500
Ni  0.975146  6.359338  2.691306
Ni  2.816294  2.727386  0.890705
Ni  2.885588  4.501852 13.514897
Ni  0.989139  2.690930 13.562590
Ni  6.389643  0.900880  2.740828
Ni  6.387214  4.527771 13.605810
Ni  6.409169  2.712420  0.969848
Ni  0.991124  8.145386  0.846720
Ni  2.777010  6.377122  0.878332
Ni  0.992809  6.289048 13.504700
Ni  6.424743  6.354046  0.911589
Ni  6.412867  8.147629 13.531503
Ni  4.632850  6.387682 13.564561
Ni  0.940240 11.762823  0.858969
Ni  4.627366  9.932115 13.527520
Ni  6.441447  9.934770  0.903116
Ni  6.462924 11.740779 13.525175
%ENDBLOCK POSITIONS_ABS

