#######################################################
#CASTEP cell file: /home/u2093113/Documents/kART/CASTEP/castep.cell
#Created using the Atomic Simulation Environment (ASE)#
#######################################################

%BLOCK LATTICE_CART
14.464828  0.000000  0.000000
 0.000000 14.464828  0.000000
 0.000000  0.000000 14.464828
%ENDBLOCK LATTICE_CART

%BLOCK POSITIONS_ABS
Al  8.218279 13.558185  2.734811
Al 11.837523 13.558090  2.715498
Al  8.252594  2.728420  2.722691
Al 11.851171  2.723136  2.723883
Al  8.295964  6.334484  2.639873
Al 11.883338  6.324672  2.689310
Al  8.233349  9.933179  2.727204
Al 11.852426  9.949575  2.693569
Al  8.216620 13.542582  6.311025
Al 11.833414 13.581242  6.298405
Al  8.160632  2.782513  6.297747
Al 11.857085  2.713809  6.314888
Al  8.406675  6.368404  6.335163
Al 11.873355  6.311124  6.324570
Al  8.295011  9.904990  6.248842
Al 11.874724  9.953189  6.298286
Al  8.246853 13.521304  9.914366
Al 11.826542 13.583199  9.923871
Al  8.236352  2.735148  9.951405
Al 11.824994  2.701753  9.922174
Al  8.295001  6.344236 10.000823
Al 11.900129  6.308526  9.949469
Al  8.346247  9.923566 10.027916
Al 11.841984  9.948602  9.944613
Al  8.249462 13.549707 13.574257
Al 11.812150 13.576829 13.569531
Al  8.208709  2.715465 13.577103
Al 11.839583  2.708893 13.561805
Al  8.227016  6.328404 13.568577
Al 11.843311  6.309311 13.571140
Al  8.234502  9.940343 13.551474
Al 11.868946  9.942137 13.576305
Al  4.770647 11.745797  0.894523
Al  0.824104  9.967841 13.544262
Al  2.798655 11.846080 13.439681
Al  4.668447  8.173420  0.972288
Al  2.781189  8.051171 13.465240
Al  4.602514  4.625086  1.011076
Al  0.987099  4.515060  0.872110
Al  2.847933 11.784410 10.046370
Al  0.863736  6.296333 10.068671
Al  4.718940  4.595529 11.753508
Al  2.777298  4.274833  9.945461
Al  4.786406  0.796382 11.684774
Al  4.699441  2.664800 13.671403
Al  2.732054  0.903302  9.828724
Al  0.801555  0.894908 11.757819
Al  4.555943  9.932064  6.319167
Al  6.369072  9.925098  8.235314
Al  2.649663  9.866363  4.487759
Al  0.908751 11.764433  8.061955
Al  6.266461  6.323007  8.099020
Al  0.889538  8.275540  8.079569
Al  2.866863  6.323933  8.040919
Al  4.881579  3.020787  6.299430
Al  4.823115  0.834721  8.123360
Al  2.701244  0.772445  6.302957
Al  2.708799 11.810646  2.687858
Al  6.298012  6.314467  4.539615
Al  2.748147  6.342356  4.495741
Al  2.801098  0.811089  2.623491
Al  2.739552  0.791622 13.734571
Al  2.720923  2.838962  4.453578
Ni  8.210396  0.910351  4.504256
Ni 10.029460 13.560987  4.517245
Ni 10.041989  0.913210  2.730810
Ni 11.850426  0.916073  4.516945
Ni 13.655122 13.572870  4.494775
Ni 13.634980  0.918222  2.714154
Ni  8.224284  4.612221  4.527806
Ni 10.026426  2.730979  4.526562
Ni 10.067691  4.524778  2.708501
Ni 11.868786  4.513810  4.528285
Ni 13.680576  2.711373  4.516588
Ni 13.667103  4.520734  2.711351
Ni  8.240617  8.064686  4.520583
Ni 10.093146  6.330730  4.491847
Ni 10.045221  8.133861  2.697592
Ni 11.867049  8.140332  4.482622
Ni 13.652061  6.323867  4.508547
Ni 13.669036  8.129341  2.681387
Ni  8.220106 11.745090  4.533903
Ni 10.063671  9.933047  4.493573
Ni 10.021395 11.749718  2.710529
Ni 11.844596 11.758353  4.487905
Ni 13.673299  9.952342  4.475818
Ni 13.660309 11.754099  2.698149
Ni  6.523115  0.872562  9.931551
Ni 10.022206 13.567459  8.104448
Ni 10.008031  0.924073  6.301133
Ni 11.820783  0.922331  8.092430
Ni 13.642721 13.591411  8.101934
Ni 13.664634  0.906781  6.296480
Ni  8.216154  4.622223  8.107823
Ni  9.996846  2.724144  8.108164
Ni 10.037822  4.516331  6.322810
Ni 11.857058  4.494872  8.126101
Ni 13.671132  2.708514  8.115604
Ni 13.681493  4.513041  6.333642
Ni  8.242560  8.139747  8.143994
Ni 10.095819  6.334119  8.157514
Ni 10.102253  8.148339  6.321260
Ni 11.890551  8.119736  8.134003
Ni 13.700615  6.305149  8.134744
Ni 13.642367  8.140739  6.282854
Ni  8.243957 11.655020  8.122102
Ni 10.085960  9.927003  8.124804
Ni 10.049148 11.742076  6.313847
Ni 11.842731 11.790216  8.114375
Ni 13.599913  9.985701  8.140715
Ni 13.615701 11.767417  6.268581
Ni  8.227409  0.896162 11.766849
Ni 10.032140 13.567966 11.745453
Ni 10.009483  0.909266  9.922307
Ni 11.841015  0.910070 11.743661
Ni 13.614996 13.534836 11.743854
Ni 13.611532  0.901291  9.885629
Ni  8.205591  4.526300 11.759129
Ni 10.020315  2.711585 11.752728
Ni 10.042529  4.517826  9.939619
Ni 11.831026  4.505029 11.745908
Ni 13.632862  2.731708 11.744730
Ni 13.661592  4.468395  9.939132
Ni  8.248791  8.138110 11.757573
Ni 10.056607  6.315252 11.769341
Ni 10.080267  8.120191  9.949038
Ni 11.854747  8.124588 11.763386
Ni 13.635781  6.296179 11.801602
Ni 13.661826  8.155155  9.961576
Ni  8.260788 11.733381 11.742005
Ni 10.082002  9.938453 11.781635
Ni 10.059750 11.757620  9.925797
Ni 11.825112 11.761464 11.751565
Ni 13.625234  9.966393 11.724069
Ni 13.623902 11.773541  9.945154
Ni  8.238031  0.910744  0.942294
Ni 10.024529 13.561174  0.922987
Ni 10.028390  0.913772 13.569521
Ni 11.822090  0.901563  0.928543
Ni 13.638983 13.568562  0.912641
Ni 13.606575  0.904622 13.601929
Ni  8.230878  4.509813  0.918192
Ni 10.042908  2.718250  0.913317
Ni 10.028178  4.507879 13.562784
Ni 11.861462  4.512353  0.897650
Ni 13.643328  2.699195  0.904300
Ni 13.649261  4.492778 13.540512
Ni  8.229604  8.146067  0.895101
Ni 10.057036  6.320906  0.885572
Ni 10.046170  8.131794 13.564705
Ni 11.843343  8.134971  0.901759
Ni 13.672026  6.338780  0.868583
Ni 13.640166  8.107108 13.551920
Ni  8.214346 11.749604  0.916617
Ni 10.033894  9.944742  0.901154
Ni 10.037624 11.752706 13.571312
Ni 11.835541 11.762226  0.915883
Ni 13.636091  9.939429  0.917622
Ni 13.596945 11.795844 13.563229
Ni  1.007994  0.913781  4.479205
Ni  2.799601 13.542284  4.500083
Ni  0.948420 13.577641  2.692675
Ni  4.536646  0.977811  4.572929
Ni  6.371911 13.552673  4.541295
Ni  4.584345  2.678827  2.709804
Ni  4.638907 13.523708  2.734305
Ni  0.967631  2.692790  2.692472
Ni  0.943132  4.542401  4.508884
Ni  4.591209  4.519061  4.422370
Ni  6.423306  2.749367  4.437232
Ni  6.435582  4.565941  2.730904
Ni  2.746018  4.549600  2.669829
Ni  0.933728  8.107855  4.506867
Ni  4.558862  6.380401  2.711489
Ni  2.756750  8.152525  2.662909
Ni  4.576911  8.183901  4.507705
Ni  4.555175  6.306286  6.275755
Ni  6.429248  8.126808  2.748684
Ni  0.969029 11.767455  4.486187
Ni  4.574695  9.983073  2.725300
Ni  0.989032  9.944607  2.648901
Ni  4.578959 11.710114  4.514384
Ni  6.408834  9.909336  4.508374
Ni  6.420962 11.733998  2.770844
Ni  2.787744  9.991291  0.821622
Ni  0.954927  0.887222  8.089665
Ni  2.810595 13.527674  8.130153
Ni  0.945345 13.537666  6.279179
Ni  6.453296 13.468833  8.108827
Ni  6.400092  0.944045  6.269663
Ni  4.603644 13.535688  6.306999
Ni  1.051613  4.524135  8.152768
Ni  2.887809  2.593020  8.008698
Ni  2.794339  4.497171  6.308358
Ni  1.007264  2.703848  6.311432
Ni  4.583670  4.504378  8.200316
Ni  8.208093  0.912984  8.083329
Ni  6.446642  2.770591  8.175282
Ni  0.926557  9.980300  6.285963
Ni  0.968459  6.326497  6.339445
Ni  4.566320  8.179060  8.139329
Ni  6.406575  8.108183  6.329228
Ni  2.747946  8.159074  6.325794
Ni  2.749960 10.008747  8.174727
Ni  2.783557 11.748186  6.279345
Ni  4.614007 11.746536  8.112627
Ni  6.402887 11.667591  6.329310
Ni  0.952388 13.557128  9.916884
Ni  6.467878 13.496118 11.755035
Ni  4.653503 13.552765  9.926055
Ni  1.013435  4.433335 11.764151
Ni  0.959892  2.649660  9.921849
Ni  2.862326  2.505543 11.844590
Ni  6.380302  2.714304 11.760576
Ni  6.438059  4.567913  9.915383
Ni  4.649583  2.659983  9.936987
Ni  0.956317  8.154342 11.761014
Ni  2.779794  6.249605 11.693358
Ni  2.697894  8.104858  9.891428
Ni  4.593661  8.125832 11.716228
Ni  6.420013  6.371685 11.766105
Ni  6.405117  8.112723  9.950977
Ni  4.533187  6.341299  9.962266
Ni  0.945263 11.804815 11.757776
Ni  2.754570  9.931542 11.807180
Ni  0.975287 10.009050  9.991739
Ni  4.645539 11.759682 11.754464
Ni  6.399785  9.929474 11.733243
Ni  6.418690 11.711666  9.947783
Ni  4.557236  9.924153  9.982562
Ni  0.928467  0.898341  0.924081
Ni  2.819384 13.445701  0.895127
Ni  2.781438 13.742241 11.732414
Ni  0.933731 13.567099 13.566778
Ni  4.646864  0.842450  0.918887
Ni  6.439783 13.581435  0.917969
Ni  6.448305  0.885461 13.590718
Ni  4.662689 13.547673 13.555241
Ni  0.966570  6.348729  2.681323
Ni  2.814509  2.711868  0.886187
Ni  2.883799  4.490039 13.514149
Ni  0.986459  2.676268 13.563496
Ni  6.390283  0.891556  2.737022
Ni  6.386716  4.518993 13.606158
Ni  6.409363  2.702292  0.964433
Ni  0.990940  8.141902  0.847484
Ni  2.774971  6.368935  0.876204
Ni  0.990990  6.283564 13.508375
Ni  6.427725  6.347339  0.905023
Ni  6.410432  8.145474 13.532587
Ni  4.629178  6.383955 13.568293
Ni  0.941682 11.760091  0.865943
Ni  4.622167  9.929555 13.528750
Ni  6.437996  9.930101  0.905154
Ni  6.458172 11.732665 13.523959
%ENDBLOCK POSITIONS_ABS

