#######################################################
#CASTEP cell file: /home/u2093113/Documents/kART/CASTEP/castep.cell
#Created using the Atomic Simulation Environment (ASE)#
#######################################################

%BLOCK LATTICE_CART
14.464828  0.000000  0.000000
 0.000000 14.464828  0.000000
 0.000000  0.000000 14.464828
%ENDBLOCK LATTICE_CART

%BLOCK POSITIONS_ABS
Al  8.226636 13.571021  2.730745
Al 11.840898 13.564659  2.708322
Al  8.244916  2.741502  2.738003
Al 11.852386  2.744651  2.720001
Al  8.275667  6.353815  2.670435
Al 11.878588  6.344168  2.695996
Al  8.237249  9.949511  2.724621
Al 11.853891  9.955694  2.695962
Al  8.230416 13.547211  6.307581
Al 11.839018 13.587594  6.303935
Al  8.206031  2.750561  6.293136
Al 11.861520  2.730181  6.313436
Al  8.351866  6.379041  6.335071
Al 11.870254  6.334137  6.326685
Al  8.294814  9.934391  6.249747
Al 11.871547  9.957337  6.308720
Al  8.253095 13.538650  9.923634
Al 11.827840 13.595852  9.934011
Al  8.231497  2.745392  9.936530
Al 11.823710  2.724625  9.925722
Al  8.276856  6.357206  9.976941
Al 11.894600  6.325248  9.939679
Al  8.346249  9.939740 10.033777
Al 11.836206  9.952018  9.942677
Al  8.257059 13.568070 13.580441
Al 11.809872 13.589562 13.566405
Al  8.207253  2.738337 13.583354
Al 11.833610  2.738150 13.559227
Al  8.224110  6.340207 13.570749
Al 11.838177  6.323506 13.569555
Al  8.243200  9.948457 13.554033
Al 11.873033  9.944548 13.570564
Al  4.769653 11.759884  0.881779
Al  0.824112  9.970663 13.535420
Al  2.800708 11.857622 13.437720
Al  4.665498  8.180085  0.971843
Al  2.787775  8.054097 13.459015
Al  4.601149  4.646891  1.021474
Al  0.989855  4.539494  0.879127
Al  2.852868 11.811766 10.062801
Al  0.895823  6.309918 10.034832
Al  4.716532  4.603771 11.738633
Al  2.797185  4.308137  9.899061
Al  4.792278  0.818485 11.687227
Al  4.704095  2.689949 13.672916
Al  2.725501  0.916412  9.838824
Al  0.800704  0.918523 11.761431
Al  4.558205  9.974558  6.318714
Al  6.373653  9.974495  8.240720
Al  2.645983  9.906004  4.485457
Al  0.906543 11.781362  8.073851
Al  6.184507  6.377916  8.058445
Al  0.927771  8.272044  8.073398
Al  3.038212  6.335603  7.867781
Al  4.735844  2.858598  6.286593
Al  4.812944  0.809980  8.139858
Al  2.672384  0.764064  6.296388
Al  2.696926 11.823072  2.667573
Al  6.202191  6.392470  4.589638
Al  2.825473  6.361575  4.581274
Al  2.790655  0.817921  2.608190
Al  2.741213  0.821474 13.736574
Al  2.686440  2.836083  4.428175
Ni  8.216142  0.909395  4.504968
Ni 10.042380 13.570359  4.516191
Ni 10.048599  0.925014  2.729944
Ni 11.854780  0.925815  4.512052
Ni 13.648692 13.580189  4.489944
Ni 13.629989  0.934890  2.702247
Ni  8.228035  4.609207  4.520047
Ni 10.043459  2.739483  4.524564
Ni 10.058906  4.543460  2.719342
Ni 11.867559  4.536861  4.527480
Ni 13.676374  2.729661  4.511573
Ni 13.667730  4.548637  2.714552
Ni  8.224626  8.097935  4.527814
Ni 10.077192  6.350420  4.505087
Ni 10.042459  8.149442  2.706762
Ni 11.865276  8.154688  4.493738
Ni 13.659660  6.346126  4.518299
Ni 13.673151  8.138487  2.688954
Ni  8.228463 11.762611  4.525777
Ni 10.066055  9.948932  4.498744
Ni 10.030458 11.760080  2.707988
Ni 11.847646 11.763919  4.487462
Ni 13.678331  9.960907  4.482387
Ni 13.662159 11.760746  2.692011
Ni  6.530523  0.892850  9.925438
Ni 10.030396 13.576489  8.111327
Ni 10.026424  0.925363  6.300819
Ni 11.822707  0.934777  8.099230
Ni 13.635614 13.597800  8.115020
Ni 13.657067  0.912719  6.299010
Ni  8.225274  4.612812  8.114122
Ni 10.011442  2.733794  8.109465
Ni 10.051188  4.537821  6.321826
Ni 11.852815  4.518517  8.127483
Ni 13.667821  2.726138  8.118248
Ni 13.683134  4.538797  6.332125
Ni  8.222255  8.167424  8.141571
Ni 10.075164  6.351335  8.147837
Ni 10.079928  8.155778  6.324336
Ni 11.885110  8.129706  8.133498
Ni 13.712552  6.324699  8.127233
Ni 13.656179  8.154315  6.293534
Ni  8.248952 11.672792  8.128569
Ni 10.079603  9.936846  8.126491
Ni 10.057448 11.756197  6.319221
Ni 11.846199 11.792517  8.127257
Ni 13.612957  9.985436  8.147951
Ni 13.609877 11.772823  6.275795
Ni  8.228896  0.916069 11.772553
Ni 10.035255 13.581743 11.751424
Ni 10.011694  0.924688  9.928628
Ni 11.841510  0.931953 11.748267
Ni 13.616250 13.550791 11.746496
Ni 13.611694  0.921964  9.892054
Ni  8.198499  4.542353 11.750186
Ni 10.015130  2.732027 11.752786
Ni 10.029460  4.536932  9.934009
Ni 11.824577  4.528625 11.740325
Ni 13.633843  2.759134 11.744205
Ni 13.666518  4.496460  9.935680
Ni  8.248295  8.144754 11.756568
Ni 10.045577  6.330194 11.762111
Ni 10.068664  8.129964  9.944442
Ni 11.853524  8.129249 11.753641
Ni 13.645885  6.308169 11.783421
Ni 13.673652  8.160822  9.952842
Ni  8.265070 11.749078 11.750564
Ni 10.081982  9.945283 11.783470
Ni 10.061149 11.766895  9.932825
Ni 11.825806 11.767619 11.752760
Ni 13.631666  9.973119 11.716693
Ni 13.628411 11.779693  9.952270
Ni  8.238739  0.929688  0.946714
Ni 10.029569 13.574158  0.924691
Ni 10.029297  0.934065 13.573956
Ni 11.819057  0.920389  0.923554
Ni 13.637262 13.582207  0.902630
Ni 13.605187  0.928832 13.600239
Ni  8.223080  4.531255  0.933959
Ni 10.039347  2.739166  0.920088
Ni 10.019872  4.530029 13.565736
Ni 11.858210  4.536377  0.900355
Ni 13.639701  2.723853  0.897138
Ni 13.652771  4.517125 13.534706
Ni  8.230206  8.154089  0.899232
Ni 10.048292  6.337104  0.899302
Ni 10.047252  8.139092 13.566183
Ni 11.842630  8.143516  0.903283
Ni 13.676423  6.355613  0.874266
Ni 13.644059  8.113950 13.543372
Ni  8.221036 11.762035  0.915745
Ni 10.038359  9.953462  0.904480
Ni 10.042443 11.761232 13.573555
Ni 11.840672 11.769111  0.908527
Ni 13.635885  9.943798  0.912040
Ni 13.598766 11.803612 13.556073
Ni  0.989430  0.919697  4.468525
Ni  2.782427 13.547398  4.486106
Ni  0.938504 13.590482  2.676080
Ni  4.516777  0.966950  4.558345
Ni  6.370595 13.557708  4.525903
Ni  4.581064  2.687000  2.714893
Ni  4.633747 13.534128  2.721219
Ni  0.953857  2.712489  2.682589
Ni  0.945282  4.566706  4.511057
Ni  4.591669  4.508439  4.462532
Ni  6.413234  2.748953  4.467136
Ni  6.413458  4.586414  2.748201
Ni  2.757176  4.579569  2.696139
Ni  0.954653  8.122881  4.519792
Ni  4.545892  6.398367  2.742696
Ni  2.758121  8.171017  2.671875
Ni  4.564135  8.253879  4.493235
Ni  6.445078  4.632200  6.307345
Ni  6.419329  8.149815  2.749749
Ni  0.963508 11.779696  4.481670
Ni  4.564825 10.022418  2.693232
Ni  0.987285  9.950857  2.644132
Ni  4.570701 11.730565  4.502335
Ni  6.406171  9.943994  4.492095
Ni  6.424451 11.750924  2.756295
Ni  2.780104  9.990036  0.807444
Ni  0.942270  0.889785  8.098420
Ni  2.805835 13.544216  8.137456
Ni  0.927461 13.538501  6.281950
Ni  6.463535 13.478673  8.111631
Ni  6.393813  0.907302  6.266518
Ni  4.596553 13.541243  6.299405
Ni  1.055338  4.541401  8.138081
Ni  2.857956  2.581077  8.009144
Ni  2.773341  4.464478  6.303738
Ni  0.979931  2.699378  6.307486
Ni  4.603188  4.462305  8.157838
Ni  8.218374  0.911920  8.080332
Ni  6.441332  2.755135  8.136954
Ni  0.922527 10.008142  6.295644
Ni  1.009787  6.344522  6.345450
Ni  4.563705  8.262683  8.161291
Ni  6.389614  8.193287  6.338163
Ni  2.767903  8.224553  6.325336
Ni  2.756087 10.042363  8.186604
Ni  2.778376 11.773828  6.282474
Ni  4.615803 11.775928  8.120392
Ni  6.407003 11.695415  6.321115
Ni  0.949555 13.569667  9.928568
Ni  6.476760 13.520659 11.763119
Ni  4.660784 13.563212  9.938529
Ni  1.027001  4.454123 11.748948
Ni  0.961702  2.675103  9.917204
Ni  2.868724  2.532529 11.839895
Ni  6.384626  2.732039 11.754727
Ni  6.425100  4.573500  9.899059
Ni  4.647309  2.653474  9.929983
Ni  0.965980  8.157292 11.750118
Ni  2.794421  6.260869 11.680499
Ni  2.714131  8.120980  9.881088
Ni  4.598436  8.127366 11.705868
Ni  6.418312  6.378743 11.750452
Ni  6.403250  8.137011  9.945641
Ni  4.525196  6.346229  9.916416
Ni  0.950919 11.814673 11.760004
Ni  2.763432  9.940511 11.804303
Ni  0.983843 10.017982  9.991492
Ni  4.656601 11.781036 11.768842
Ni  6.409368  9.941005 11.741173
Ni  6.427549 11.736608  9.963263
Ni  4.565921  9.961420 10.009641
Ni  0.925933  0.920626  0.915385
Ni  2.815196 13.458460  0.880579
Ni  2.783770 13.768785 11.741359
Ni  0.933023 13.583783 13.562199
Ni  4.645546  0.862530  0.917822
Ni  6.441594 13.600312  0.916733
Ni  6.452515  0.908954 13.595456
Ni  4.666515 13.568819 13.557758
Ni  0.983723  6.369947  2.701290
Ni  2.818078  2.742904  0.895224
Ni  2.887377  4.513665 13.515644
Ni  0.991819  2.705593 13.561684
Ni  6.389002  0.910203  2.744634
Ni  6.387712  4.536549 13.605463
Ni  6.408974  2.722549  0.975263
Ni  0.991308  8.148870  0.845956
Ni  2.779049  6.385310  0.880460
Ni  0.994627  6.294531 13.501024
Ni  6.421762  6.360752  0.918154
Ni  6.415301  8.149784 13.530418
Ni  4.636521  6.391408 13.560830
Ni  0.938798 11.765555  0.851995
Ni  4.632565  9.934676 13.526289
Ni  6.444898  9.939439  0.901077
Ni  6.467675 11.748893 13.526392
%ENDBLOCK POSITIONS_ABS

