%block lattice_abc 
  14.46482773 14.46482773 14.46482773 #lattice params 
 90.0  90.0  90.0 
     %endblock lattice_abc 
     fix_all_cell : true 
     %BLOCK POSITIONS_ABS 
Al  8.218279 13.558185  2.734811
 Al 11.837523 13.558090  2.715498
 Al  8.252594  2.728420  2.722691
 Al 11.851171  2.723136  2.723883
 Al  8.295964  6.334484  2.639873
 Al 11.883338  6.324672  2.689310
 Al  8.233349  9.933179  2.727204
 Al 11.852426  9.949575  2.693569
 Al  8.216620 13.542582  6.311025
 Al 11.833414 13.581242  6.298405
 Al  8.160632  2.782513  6.297747
 Al 11.857085  2.713809  6.314888
 Al  8.406675  6.368404  6.335163
 Al 11.873355  6.311124  6.324570
 Al  8.295011  9.904990  6.248842
 Al 11.874724  9.953189  6.298286
 Al  8.246853 13.521304  9.914366
 Al 11.826542 13.583199  9.923871
 Al  8.236352  2.735148  9.951405
 Al 11.824994  2.701753  9.922174
 Al  8.295001  6.344236 10.000823
 Al 11.900129  6.308526  9.949469
 Al  8.346247  9.923566 10.027916
 Al 11.841984  9.948602  9.944613
 Al  8.249462 13.549707 13.574257
 Al 11.812150 13.576829 13.569531
 Al  8.208709  2.715465 13.577103
 Al 11.839583  2.708893 13.561805
 Al  8.227016  6.328404 13.568577
 Al 11.843311  6.309311 13.571140
 Al  8.234502  9.940343 13.551474
 Al 11.868946  9.942137 13.576305
 Al  4.770647 11.745797  0.894523
 Al  0.824104  9.967841 13.544262
 Al  2.798655 11.846080 13.439681
 Al  4.668447  8.173420  0.972288
 Al  2.781189  8.051171 13.465240
 Al  4.602514  4.625086  1.011076
 Al  0.987099  4.515060  0.872110
 Al  2.847933 11.784410 10.046370
 Al  0.863736  6.296333 10.068671
 Al  4.718940  4.595529 11.753508
 Al  2.777298  4.274833  9.945461
 Al  4.786406  0.796382 11.684774
 Al  4.699441  2.664800 13.671403
 Al  2.732054  0.903302  9.828724
 Al  0.801555  0.894908 11.757819
 Al  4.555943  9.932064  6.319167
 Al  6.369072  9.925098  8.235314
 Al  2.649663  9.866363  4.487759
 Al  0.908751 11.764433  8.061955
 Al  6.266461  6.323007  8.099020
 Al  0.889538  8.275540  8.079569
 Al  2.866863  6.323933  8.040919
 Al  4.881579  3.020787  6.299430
 Al  4.823115  0.834721  8.123360
 Al  2.701244  0.772445  6.302957
 Al  2.708799 11.810646  2.687858
 Al  6.298012  6.314467  4.539615
 Al  2.748147  6.342356  4.495741
 Al  2.801098  0.811089  2.623491
 Al  2.739552  0.791622 13.734571
 Al  2.720923  2.838962  4.453578
 Ni  8.210396  0.910351  4.504256
 Ni 10.029460 13.560987  4.517245
 Ni 10.041989  0.913210  2.730810
 Ni 11.850426  0.916073  4.516945
 Ni 13.655122 13.572870  4.494775
 Ni 13.634980  0.918222  2.714154
 Ni  8.224284  4.612221  4.527806
 Ni 10.026426  2.730979  4.526562
 Ni 10.067691  4.524778  2.708501
 Ni 11.868786  4.513810  4.528285
 Ni 13.680576  2.711373  4.516588
 Ni 13.667103  4.520734  2.711351
 Ni  8.240617  8.064686  4.520583
 Ni 10.093146  6.330730  4.491847
 Ni 10.045221  8.133861  2.697592
 Ni 11.867049  8.140332  4.482622
 Ni 13.652061  6.323867  4.508547
 Ni 13.669036  8.129341  2.681387
 Ni  8.220106 11.745090  4.533903
 Ni 10.063671  9.933047  4.493573
 Ni 10.021395 11.749718  2.710529
 Ni 11.844596 11.758353  4.487905
 Ni 13.673299  9.952342  4.475818
 Ni 13.660309 11.754099  2.698149
 Ni  6.523115  0.872562  9.931551
 Ni 10.022206 13.567459  8.104448
 Ni 10.008031  0.924073  6.301133
 Ni 11.820783  0.922331  8.092430
 Ni 13.642721 13.591411  8.101934
 Ni 13.664634  0.906781  6.296480
 Ni  8.216154  4.622223  8.107823
 Ni  9.996846  2.724144  8.108164
 Ni 10.037822  4.516331  6.322810
 Ni 11.857058  4.494872  8.126101
 Ni 13.671132  2.708514  8.115604
 Ni 13.681493  4.513041  6.333642
 Ni  8.242560  8.139747  8.143994
 Ni 10.095819  6.334119  8.157514
 Ni 10.102253  8.148339  6.321260
 Ni 11.890551  8.119736  8.134003
 Ni 13.700615  6.305149  8.134744
 Ni 13.642367  8.140739  6.282854
 Ni  8.243957 11.655020  8.122102
 Ni 10.085960  9.927003  8.124804
 Ni 10.049148 11.742076  6.313847
 Ni 11.842731 11.790216  8.114375
 Ni 13.599913  9.985701  8.140715
 Ni 13.615701 11.767417  6.268581
 Ni  8.227409  0.896162 11.766849
 Ni 10.032140 13.567966 11.745453
 Ni 10.009483  0.909266  9.922307
 Ni 11.841015  0.910070 11.743661
 Ni 13.614996 13.534836 11.743854
 Ni 13.611532  0.901291  9.885629
 Ni  8.205591  4.526300 11.759129
 Ni 10.020315  2.711585 11.752728
 Ni 10.042529  4.517826  9.939619
 Ni 11.831026  4.505029 11.745908
 Ni 13.632862  2.731708 11.744730
 Ni 13.661592  4.468395  9.939132
 Ni  8.248791  8.138110 11.757573
 Ni 10.056607  6.315252 11.769341
 Ni 10.080267  8.120191  9.949038
 Ni 11.854747  8.124588 11.763386
 Ni 13.635781  6.296179 11.801602
 Ni 13.661826  8.155155  9.961576
 Ni  8.260788 11.733381 11.742005
 Ni 10.082002  9.938453 11.781635
 Ni 10.059750 11.757620  9.925797
 Ni 11.825112 11.761464 11.751565
 Ni 13.625234  9.966393 11.724069
 Ni 13.623902 11.773541  9.945154
 Ni  8.238031  0.910744  0.942294
 Ni 10.024529 13.561174  0.922987
 Ni 10.028390  0.913772 13.569521
 Ni 11.822090  0.901563  0.928543
 Ni 13.638983 13.568562  0.912641
 Ni 13.606575  0.904622 13.601929
 Ni  8.230878  4.509813  0.918192
 Ni 10.042908  2.718250  0.913317
 Ni 10.028178  4.507879 13.562784
 Ni 11.861462  4.512353  0.897650
 Ni 13.643328  2.699195  0.904300
 Ni 13.649261  4.492778 13.540512
 Ni  8.229604  8.146067  0.895101
 Ni 10.057036  6.320906  0.885572
 Ni 10.046170  8.131794 13.564705
 Ni 11.843343  8.134971  0.901759
 Ni 13.672026  6.338780  0.868583
 Ni 13.640166  8.107108 13.551920
 Ni  8.214346 11.749604  0.916617
 Ni 10.033894  9.944742  0.901154
 Ni 10.037624 11.752706 13.571312
 Ni 11.835541 11.762226  0.915883
 Ni 13.636091  9.939429  0.917622
 Ni 13.596945 11.795844 13.563229
 Ni  1.007994  0.913781  4.479205
 Ni  2.799601 13.542284  4.500083
 Ni  0.948420 13.577641  2.692675
 Ni  4.536646  0.977811  4.572929
 Ni  6.371911 13.552673  4.541295
 Ni  4.584345  2.678827  2.709804
 Ni  4.638907 13.523708  2.734305
 Ni  0.967631  2.692790  2.692472
 Ni  0.943132  4.542401  4.508884
 Ni  4.591209  4.519061  4.422370
 Ni  6.423306  2.749367  4.437232
 Ni  6.435582  4.565941  2.730904
 Ni  2.746018  4.549600  2.669829
 Ni  0.933728  8.107855  4.506867
 Ni  4.558862  6.380401  2.711489
 Ni  2.756750  8.152525  2.662909
 Ni  4.576911  8.183901  4.507705
 Ni  4.555175  6.306286  6.275755
 Ni  6.429248  8.126808  2.748684
 Ni  0.969029 11.767455  4.486187
 Ni  4.574695  9.983073  2.725300
 Ni  0.989032  9.944607  2.648901
 Ni  4.578959 11.710114  4.514384
 Ni  6.408834  9.909336  4.508374
 Ni  6.420962 11.733998  2.770844
 Ni  2.787744  9.991291  0.821622
 Ni  0.954927  0.887222  8.089665
 Ni  2.810595 13.527674  8.130153
 Ni  0.945345 13.537666  6.279179
 Ni  6.453296 13.468833  8.108827
 Ni  6.400092  0.944045  6.269663
 Ni  4.603644 13.535688  6.306999
 Ni  1.051613  4.524135  8.152768
 Ni  2.887809  2.593020  8.008698
 Ni  2.794339  4.497171  6.308358
 Ni  1.007264  2.703848  6.311432
 Ni  4.583670  4.504378  8.200316
 Ni  8.208093  0.912984  8.083329
 Ni  6.446642  2.770591  8.175282
 Ni  0.926557  9.980300  6.285963
 Ni  0.968459  6.326497  6.339445
 Ni  4.566320  8.179060  8.139329
 Ni  6.406575  8.108183  6.329228
 Ni  2.747946  8.159074  6.325794
 Ni  2.749960 10.008747  8.174727
 Ni  2.783557 11.748186  6.279345
 Ni  4.614007 11.746536  8.112627
 Ni  6.402887 11.667591  6.329310
 Ni  0.952388 13.557128  9.916884
 Ni  6.467878 13.496118 11.755035
 Ni  4.653503 13.552765  9.926055
 Ni  1.013435  4.433335 11.764151
 Ni  0.959892  2.649660  9.921849
 Ni  2.862326  2.505543 11.844590
 Ni  6.380302  2.714304 11.760576
 Ni  6.438059  4.567913  9.915383
 Ni  4.649583  2.659983  9.936987
 Ni  0.956317  8.154342 11.761014
 Ni  2.779794  6.249605 11.693358
 Ni  2.697894  8.104858  9.891428
 Ni  4.593661  8.125832 11.716228
 Ni  6.420013  6.371685 11.766105
 Ni  6.405117  8.112723  9.950977
 Ni  4.533187  6.341299  9.962266
 Ni  0.945263 11.804815 11.757776
 Ni  2.754570  9.931542 11.807180
 Ni  0.975287 10.009050  9.991739
 Ni  4.645539 11.759682 11.754464
 Ni  6.399785  9.929474 11.733243
 Ni  6.418690 11.711666  9.947783
 Ni  4.557236  9.924153  9.982562
 Ni  0.928467  0.898341  0.924081
 Ni  2.819384 13.445701  0.895127
 Ni  2.781438 13.742241 11.732414
 Ni  0.933731 13.567099 13.566778
 Ni  4.646864  0.842450  0.918887
 Ni  6.439783 13.581435  0.917969
 Ni  6.448305  0.885461 13.590718
 Ni  4.662689 13.547673 13.555241
 Ni  0.966570  6.348729  2.681323
 Ni  2.814509  2.711868  0.886187
 Ni  2.883799  4.490039 13.514149
 Ni  0.986459  2.676268 13.563496
 Ni  6.390283  0.891556  2.737022
 Ni  6.386716  4.518993 13.606158
 Ni  6.409363  2.702292  0.964433
 Ni  0.990940  8.141902  0.847484
 Ni  2.774971  6.368935  0.876204
 Ni  0.990990  6.283564 13.508375
 Ni  6.427725  6.347339  0.905023
 Ni  6.410432  8.145474 13.532587
 Ni  4.629178  6.383955 13.568293
 Ni  0.941682 11.760091  0.865943
 Ni  4.622167  9.929555 13.528750
 Ni  6.437996  9.930101  0.905154
 Ni  6.458172 11.732665 13.523959
 %ENDBLOCK POSITIONS_ABS
 
%block positions_abs_product 
     ang 
Al  8.226636 13.571021  2.730745
 Al 11.840898 13.564659  2.708322
 Al  8.244916  2.741502  2.738003
 Al 11.852386  2.744651  2.720001
 Al  8.275667  6.353815  2.670435
 Al 11.878588  6.344168  2.695996
 Al  8.237249  9.949511  2.724621
 Al 11.853891  9.955694  2.695962
 Al  8.230416 13.547211  6.307581
 Al 11.839018 13.587594  6.303935
 Al  8.206031  2.750561  6.293136
 Al 11.861520  2.730181  6.313436
 Al  8.351866  6.379041  6.335071
 Al 11.870254  6.334137  6.326685
 Al  8.294814  9.934391  6.249747
 Al 11.871547  9.957337  6.308720
 Al  8.253095 13.538650  9.923634
 Al 11.827840 13.595852  9.934011
 Al  8.231497  2.745392  9.936530
 Al 11.823710  2.724625  9.925722
 Al  8.276856  6.357206  9.976941
 Al 11.894600  6.325248  9.939679
 Al  8.346249  9.939740 10.033777
 Al 11.836206  9.952018  9.942677
 Al  8.257059 13.568070 13.580441
 Al 11.809872 13.589562 13.566405
 Al  8.207253  2.738337 13.583354
 Al 11.833610  2.738150 13.559227
 Al  8.224110  6.340207 13.570749
 Al 11.838177  6.323506 13.569555
 Al  8.243200  9.948457 13.554033
 Al 11.873033  9.944548 13.570564
 Al  4.769653 11.759884  0.881779
 Al  0.824112  9.970663 13.535420
 Al  2.800708 11.857622 13.437720
 Al  4.665498  8.180085  0.971843
 Al  2.787775  8.054097 13.459015
 Al  4.601149  4.646891  1.021474
 Al  0.989855  4.539494  0.879127
 Al  2.852868 11.811766 10.062801
 Al  0.895823  6.309918 10.034832
 Al  4.716532  4.603771 11.738633
 Al  2.797185  4.308137  9.899061
 Al  4.792278  0.818485 11.687227
 Al  4.704095  2.689949 13.672916
 Al  2.725501  0.916412  9.838824
 Al  0.800704  0.918523 11.761431
 Al  4.558205  9.974558  6.318714
 Al  6.373653  9.974495  8.240720
 Al  2.645983  9.906004  4.485457
 Al  0.906543 11.781362  8.073851
 Al  6.184507  6.377916  8.058445
 Al  0.927771  8.272044  8.073398
 Al  3.038212  6.335603  7.867781
 Al  4.735844  2.858598  6.286593
 Al  4.812944  0.809980  8.139858
 Al  2.672384  0.764064  6.296388
 Al  2.696926 11.823072  2.667573
 Al  6.202191  6.392470  4.589638
 Al  2.825473  6.361575  4.581274
 Al  2.790655  0.817921  2.608190
 Al  2.741213  0.821474 13.736574
 Al  2.686440  2.836083  4.428175
 Ni  8.216142  0.909395  4.504968
 Ni 10.042380 13.570359  4.516191
 Ni 10.048599  0.925014  2.729944
 Ni 11.854780  0.925815  4.512052
 Ni 13.648692 13.580189  4.489944
 Ni 13.629989  0.934890  2.702247
 Ni  8.228035  4.609207  4.520047
 Ni 10.043459  2.739483  4.524564
 Ni 10.058906  4.543460  2.719342
 Ni 11.867559  4.536861  4.527480
 Ni 13.676374  2.729661  4.511573
 Ni 13.667730  4.548637  2.714552
 Ni  8.224626  8.097935  4.527814
 Ni 10.077192  6.350420  4.505087
 Ni 10.042459  8.149442  2.706762
 Ni 11.865276  8.154688  4.493738
 Ni 13.659660  6.346126  4.518299
 Ni 13.673151  8.138487  2.688954
 Ni  8.228463 11.762611  4.525777
 Ni 10.066055  9.948932  4.498744
 Ni 10.030458 11.760080  2.707988
 Ni 11.847646 11.763919  4.487462
 Ni 13.678331  9.960907  4.482387
 Ni 13.662159 11.760746  2.692011
 Ni  6.530523  0.892850  9.925438
 Ni 10.030396 13.576489  8.111327
 Ni 10.026424  0.925363  6.300819
 Ni 11.822707  0.934777  8.099230
 Ni 13.635614 13.597800  8.115020
 Ni 13.657067  0.912719  6.299010
 Ni  8.225274  4.612812  8.114122
 Ni 10.011442  2.733794  8.109465
 Ni 10.051188  4.537821  6.321826
 Ni 11.852815  4.518517  8.127483
 Ni 13.667821  2.726138  8.118248
 Ni 13.683134  4.538797  6.332125
 Ni  8.222255  8.167424  8.141571
 Ni 10.075164  6.351335  8.147837
 Ni 10.079928  8.155778  6.324336
 Ni 11.885110  8.129706  8.133498
 Ni 13.712552  6.324699  8.127233
 Ni 13.656179  8.154315  6.293534
 Ni  8.248952 11.672792  8.128569
 Ni 10.079603  9.936846  8.126491
 Ni 10.057448 11.756197  6.319221
 Ni 11.846199 11.792517  8.127257
 Ni 13.612957  9.985436  8.147951
 Ni 13.609877 11.772823  6.275795
 Ni  8.228896  0.916069 11.772553
 Ni 10.035255 13.581743 11.751424
 Ni 10.011694  0.924688  9.928628
 Ni 11.841510  0.931953 11.748267
 Ni 13.616250 13.550791 11.746496
 Ni 13.611694  0.921964  9.892054
 Ni  8.198499  4.542353 11.750186
 Ni 10.015130  2.732027 11.752786
 Ni 10.029460  4.536932  9.934009
 Ni 11.824577  4.528625 11.740325
 Ni 13.633843  2.759134 11.744205
 Ni 13.666518  4.496460  9.935680
 Ni  8.248295  8.144754 11.756568
 Ni 10.045577  6.330194 11.762111
 Ni 10.068664  8.129964  9.944442
 Ni 11.853524  8.129249 11.753641
 Ni 13.645885  6.308169 11.783421
 Ni 13.673652  8.160822  9.952842
 Ni  8.265070 11.749078 11.750564
 Ni 10.081982  9.945283 11.783470
 Ni 10.061149 11.766895  9.932825
 Ni 11.825806 11.767619 11.752760
 Ni 13.631666  9.973119 11.716693
 Ni 13.628411 11.779693  9.952270
 Ni  8.238739  0.929688  0.946714
 Ni 10.029569 13.574158  0.924691
 Ni 10.029297  0.934065 13.573956
 Ni 11.819057  0.920389  0.923554
 Ni 13.637262 13.582207  0.902630
 Ni 13.605187  0.928832 13.600239
 Ni  8.223080  4.531255  0.933959
 Ni 10.039347  2.739166  0.920088
 Ni 10.019872  4.530029 13.565736
 Ni 11.858210  4.536377  0.900355
 Ni 13.639701  2.723853  0.897138
 Ni 13.652771  4.517125 13.534706
 Ni  8.230206  8.154089  0.899232
 Ni 10.048292  6.337104  0.899302
 Ni 10.047252  8.139092 13.566183
 Ni 11.842630  8.143516  0.903283
 Ni 13.676423  6.355613  0.874266
 Ni 13.644059  8.113950 13.543372
 Ni  8.221036 11.762035  0.915745
 Ni 10.038359  9.953462  0.904480
 Ni 10.042443 11.761232 13.573555
 Ni 11.840672 11.769111  0.908527
 Ni 13.635885  9.943798  0.912040
 Ni 13.598766 11.803612 13.556073
 Ni  0.989430  0.919697  4.468525
 Ni  2.782427 13.547398  4.486106
 Ni  0.938504 13.590482  2.676080
 Ni  4.516777  0.966950  4.558345
 Ni  6.370595 13.557708  4.525903
 Ni  4.581064  2.687000  2.714893
 Ni  4.633747 13.534128  2.721219
 Ni  0.953857  2.712489  2.682589
 Ni  0.945282  4.566706  4.511057
 Ni  4.591669  4.508439  4.462532
 Ni  6.413234  2.748953  4.467136
 Ni  6.413458  4.586414  2.748201
 Ni  2.757176  4.579569  2.696139
 Ni  0.954653  8.122881  4.519792
 Ni  4.545892  6.398367  2.742696
 Ni  2.758121  8.171017  2.671875
 Ni  4.564135  8.253879  4.493235
 Ni  6.445078  4.632200  6.307345
 Ni  6.419329  8.149815  2.749749
 Ni  0.963508 11.779696  4.481670
 Ni  4.564825 10.022418  2.693232
 Ni  0.987285  9.950857  2.644132
 Ni  4.570701 11.730565  4.502335
 Ni  6.406171  9.943994  4.492095
 Ni  6.424451 11.750924  2.756295
 Ni  2.780104  9.990036  0.807444
 Ni  0.942270  0.889785  8.098420
 Ni  2.805835 13.544216  8.137456
 Ni  0.927461 13.538501  6.281950
 Ni  6.463535 13.478673  8.111631
 Ni  6.393813  0.907302  6.266518
 Ni  4.596553 13.541243  6.299405
 Ni  1.055338  4.541401  8.138081
 Ni  2.857956  2.581077  8.009144
 Ni  2.773341  4.464478  6.303738
 Ni  0.979931  2.699378  6.307486
 Ni  4.603188  4.462305  8.157838
 Ni  8.218374  0.911920  8.080332
 Ni  6.441332  2.755135  8.136954
 Ni  0.922527 10.008142  6.295644
 Ni  1.009787  6.344522  6.345450
 Ni  4.563705  8.262683  8.161291
 Ni  6.389614  8.193287  6.338163
 Ni  2.767903  8.224553  6.325336
 Ni  2.756087 10.042363  8.186604
 Ni  2.778376 11.773828  6.282474
 Ni  4.615803 11.775928  8.120392
 Ni  6.407003 11.695415  6.321115
 Ni  0.949555 13.569667  9.928568
 Ni  6.476760 13.520659 11.763119
 Ni  4.660784 13.563212  9.938529
 Ni  1.027001  4.454123 11.748948
 Ni  0.961702  2.675103  9.917204
 Ni  2.868724  2.532529 11.839895
 Ni  6.384626  2.732039 11.754727
 Ni  6.425100  4.573500  9.899059
 Ni  4.647309  2.653474  9.929983
 Ni  0.965980  8.157292 11.750118
 Ni  2.794421  6.260869 11.680499
 Ni  2.714131  8.120980  9.881088
 Ni  4.598436  8.127366 11.705868
 Ni  6.418312  6.378743 11.750452
 Ni  6.403250  8.137011  9.945641
 Ni  4.525196  6.346229  9.916416
 Ni  0.950919 11.814673 11.760004
 Ni  2.763432  9.940511 11.804303
 Ni  0.983843 10.017982  9.991492
 Ni  4.656601 11.781036 11.768842
 Ni  6.409368  9.941005 11.741173
 Ni  6.427549 11.736608  9.963263
 Ni  4.565921  9.961420 10.009641
 Ni  0.925933  0.920626  0.915385
 Ni  2.815196 13.458460  0.880579
 Ni  2.783770 13.768785 11.741359
 Ni  0.933023 13.583783 13.562199
 Ni  4.645546  0.862530  0.917822
 Ni  6.441594 13.600312  0.916733
 Ni  6.452515  0.908954 13.595456
 Ni  4.666515 13.568819 13.557758
 Ni  0.983723  6.369947  2.701290
 Ni  2.818078  2.742904  0.895224
 Ni  2.887377  4.513665 13.515644
 Ni  0.991819  2.705593 13.561684
 Ni  6.389002  0.910203  2.744634
 Ni  6.387712  4.536549 13.605463
 Ni  6.408974  2.722549  0.975263
 Ni  0.991308  8.148870  0.845956
 Ni  2.779049  6.385310  0.880460
 Ni  0.994627  6.294531 13.501024
 Ni  6.421762  6.360752  0.918154
 Ni  6.415301  8.149784 13.530418
 Ni  4.636521  6.391408 13.560830
 Ni  0.938798 11.765555  0.851995
 Ni  4.632565  9.934676 13.526289
 Ni  6.444898  9.939439  0.901077
 Ni  6.467675 11.748893 13.526392
%endblock positions_abs_product 
%block positions_abs_intermediate 
     ang 
Al  8.222457 13.564603  2.732778
 Al 11.839211 13.561374  2.711910
 Al  8.248755  2.734961  2.730347
 Al 11.851779  2.733893  2.721942
 Al  8.285815  6.344149  2.655154
 Al 11.880963  6.334420  2.692653
 Al  8.235299  9.941345  2.725912
 Al 11.853159  9.952635  2.694766
 Al  8.223518 13.544897  6.309303
 Al 11.836216 13.584418  6.301170
 Al  8.183332  2.766537  6.295441
 Al 11.859303  2.721995  6.314162
 Al  8.379270  6.373722  6.335117
 Al 11.871805  6.322630  6.325628
 Al  8.294913  9.919690  6.249294
 Al 11.873136  9.955263  6.303503
 Al  8.249974 13.529977  9.919000
 Al 11.827191 13.589526  9.928941
 Al  8.233925  2.740270  9.943968
 Al 11.824352  2.713189  9.923948
 Al  8.285929  6.350721  9.988882
 Al 11.897364  6.316887  9.944574
 Al  8.346248  9.931653 10.030846
 Al 11.839095  9.950310  9.943645
 Al  8.253261 13.558889 13.577349
 Al 11.811011 13.583195 13.567968
 Al  8.207981  2.726901 13.580228
 Al 11.836596  2.723522 13.560516
 Al  8.225563  6.334305 13.569663
 Al 11.840744  6.316408 13.570348
 Al  8.238851  9.944400 13.552754
 Al 11.870989  9.943342 13.573434
 Al  4.770150 11.752840  0.888151
 Al  0.824108  9.969252 13.539841
 Al  2.799681 11.851851 13.438701
 Al  4.666972  8.176753  0.972065
 Al  2.784482  8.052634 13.462127
 Al  4.601832  4.635988  1.016275
 Al  0.988477  4.527277  0.875618
 Al  2.850400 11.798088 10.054586
 Al  0.879780  6.303125 10.051751
 Al  4.717736  4.599650 11.746070
 Al  2.787241  4.291485  9.922261
 Al  4.789342  0.807434 11.686001
 Al  4.701768  2.677375 13.672159
 Al  2.728777  0.909857  9.833774
 Al  0.801130  0.906715 11.759625
 Al  4.557074  9.953311  6.318941
 Al  6.371363  9.949797  8.238017
 Al  2.647823  9.886183  4.486608
 Al  0.907647 11.772898  8.067903
 Al  6.225484  6.350462  8.078733
 Al  0.908655  8.273792  8.076484
 Al  2.952537  6.329768  7.954350
 Al  4.808711  2.939693  6.293011
 Al  4.818029  0.822350  8.131609
 Al  2.686814  0.768254  6.299672
 Al  2.702863 11.816859  2.677715
 Al  6.250102  6.353469  4.564626
 Al  2.786810  6.351966  4.538508
 Al  2.795877  0.814505  2.615841
 Al  2.740383  0.806548 13.735572
 Al  2.703682  2.837522  4.440876
 Ni  8.213269  0.909873  4.504612
 Ni 10.035920 13.565673  4.516718
 Ni 10.045294  0.919112  2.730377
 Ni 11.852603  0.920944  4.514498
 Ni 13.651907 13.576530  4.492360
 Ni 13.632485  0.926556  2.708201
 Ni  8.226159  4.610714  4.523926
 Ni 10.034942  2.735231  4.525563
 Ni 10.063298  4.534119  2.713921
 Ni 11.868172  4.525336  4.527883
 Ni 13.678475  2.720517  4.514081
 Ni 13.667416  4.534685  2.712951
 Ni  8.232621  8.081311  4.524199
 Ni 10.085169  6.340575  4.498467
 Ni 10.043840  8.141652  2.702177
 Ni 11.866162  8.147510  4.488180
 Ni 13.655861  6.334996  4.513423
 Ni 13.671094  8.133914  2.685171
 Ni  8.224284 11.753850  4.529840
 Ni 10.064863  9.940989  4.496158
 Ni 10.025927 11.754899  2.709258
 Ni 11.846121 11.761136  4.487683
 Ni 13.675815  9.956624  4.479103
 Ni 13.661234 11.757422  2.695080
 Ni  6.526819  0.882706  9.928494
 Ni 10.026301 13.571974  8.107887
 Ni 10.017227  0.924718  6.300976
 Ni 11.821745  0.928554  8.095830
 Ni 13.639167 13.594606  8.108477
 Ni 13.660851  0.909750  6.297745
 Ni  8.220714  4.617518  8.110972
 Ni 10.004144  2.728969  8.108815
 Ni 10.044505  4.527076  6.322318
 Ni 11.854937  4.506695  8.126792
 Ni 13.669477  2.717326  8.116926
 Ni 13.682314  4.525919  6.332883
 Ni  8.232408  8.153585  8.142782
 Ni 10.085492  6.342727  8.152675
 Ni 10.091090  8.152059  6.322798
 Ni 11.887831  8.124721  8.133751
 Ni 13.706583  6.314924  8.130989
 Ni 13.649273  8.147527  6.288194
 Ni  8.246455 11.663906  8.125335
 Ni 10.082782  9.931924  8.125648
 Ni 10.053298 11.749136  6.316534
 Ni 11.844465 11.791367  8.120816
 Ni 13.606435  9.985568  8.144333
 Ni 13.612789 11.770120  6.272188
 Ni  8.228152  0.906116 11.769701
 Ni 10.033698 13.574855 11.748439
 Ni 10.010589  0.916977  9.925468
 Ni 11.841263  0.921011 11.745964
 Ni 13.615623 13.542814 11.745175
 Ni 13.611613  0.911627  9.888842
 Ni  8.202045  4.534327 11.754658
 Ni 10.017723  2.721806 11.752757
 Ni 10.035994  4.527379  9.936814
 Ni 11.827802  4.516827 11.743116
 Ni 13.633352  2.745421 11.744468
 Ni 13.664055  4.482428  9.937406
 Ni  8.248543  8.141432 11.757070
 Ni 10.051092  6.322723 11.765726
 Ni 10.074466  8.125077  9.946740
 Ni 11.854136  8.126919 11.758513
 Ni 13.640833  6.302174 11.792512
 Ni 13.667739  8.157988  9.957209
 Ni  8.262929 11.741229 11.746285
 Ni 10.081992  9.941868 11.782552
 Ni 10.060449 11.762257  9.929311
 Ni 11.825459 11.764541 11.752163
 Ni 13.628450  9.969756 11.720381
 Ni 13.626157 11.776617  9.948712
 Ni  8.238385  0.920216  0.944504
 Ni 10.027049 13.567666  0.923839
 Ni 10.028843  0.923919 13.571739
 Ni 11.820573  0.910976  0.926049
 Ni 13.638122 13.575385  0.907635
 Ni 13.605881  0.916727 13.601084
 Ni  8.226979  4.520534  0.926075
 Ni 10.041127  2.728708  0.916702
 Ni 10.024025  4.518954 13.564260
 Ni 11.859836  4.524365  0.899003
 Ni 13.641515  2.711524  0.900719
 Ni 13.651016  4.504952 13.537609
 Ni  8.229905  8.150078  0.897167
 Ni 10.052664  6.329005  0.892437
 Ni 10.046711  8.135443 13.565444
 Ni 11.842987  8.139243  0.902521
 Ni 13.674224  6.347196  0.871424
 Ni 13.642113  8.110529 13.547646
 Ni  8.217691 11.755820  0.916181
 Ni 10.036126  9.949102  0.902817
 Ni 10.040033 11.756969 13.572433
 Ni 11.838107 11.765668  0.912205
 Ni 13.635988  9.941613  0.914831
 Ni 13.597856 11.799728 13.559651
 Ni  0.998712  0.916739  4.473865
 Ni  2.791014 13.544841  4.493095
 Ni  0.943462 13.584062  2.684378
 Ni  4.526712  0.972380  4.565637
 Ni  6.371253 13.555190  4.533599
 Ni  4.582705  2.682914  2.712348
 Ni  4.636327 13.528918  2.727762
 Ni  0.960744  2.702639  2.687530
 Ni  0.944207  4.554554  4.509971
 Ni  4.591439  4.513750  4.442451
 Ni  6.418270  2.749160  4.452184
 Ni  6.424520  4.576177  2.739552
 Ni  2.751597  4.564584  2.682984
 Ni  0.944190  8.115368  4.513329
 Ni  4.552377  6.389384  2.727093
 Ni  2.757436  8.161771  2.667392
 Ni  4.570523  8.218890  4.500470
 Ni  5.500127  5.469243  6.291550
 Ni  6.424288  8.138312  2.749216
 Ni  0.966269 11.773575  4.483928
 Ni  4.569760 10.002746  2.709266
 Ni  0.988158  9.947732  2.646517
 Ni  4.574830 11.720339  4.508359
 Ni  6.407502  9.926665  4.500235
 Ni  6.422706 11.742461  2.763570
 Ni  2.783924  9.990663  0.814533
 Ni  0.948599  0.888503  8.094042
 Ni  2.808215 13.535945  8.133804
 Ni  0.936403 13.538083  6.280564
 Ni  6.458416 13.473753  8.110229
 Ni  6.396953  0.925674  6.268091
 Ni  4.600098 13.538466  6.303202
 Ni  1.053475  4.532768  8.145425
 Ni  2.872882  2.587049  8.008921
 Ni  2.783840  4.480824  6.306048
 Ni  0.993597  2.701613  6.309459
 Ni  4.593429  4.483341  8.179077
 Ni  8.213233  0.912452  8.081831
 Ni  6.443987  2.762863  8.156118
 Ni  0.924542  9.994221  6.290804
 Ni  0.989123  6.335509  6.342447
 Ni  4.565013  8.220871  8.150310
 Ni  6.398094  8.150735  6.333695
 Ni  2.757924  8.191814  6.325565
 Ni  2.753023 10.025555  8.180666
 Ni  2.780966 11.761007  6.280910
 Ni  4.614905 11.761232  8.116509
 Ni  6.404945 11.681503  6.325212
 Ni  0.950971 13.563397  9.922726
 Ni  6.472319 13.508388 11.759077
 Ni  4.657144 13.557988  9.932292
 Ni  1.020218  4.443729 11.756550
 Ni  0.960797  2.662382  9.919527
 Ni  2.865525  2.519036 11.842243
 Ni  6.382464  2.723172 11.757652
 Ni  6.431579  4.570706  9.907221
 Ni  4.648446  2.656729  9.933485
 Ni  0.961148  8.155817 11.755566
 Ni  2.787108  6.255237 11.686929
 Ni  2.706013  8.112919  9.886258
 Ni  4.596049  8.126599 11.711048
 Ni  6.419163  6.375214 11.758278
 Ni  6.404183  8.124867  9.948309
 Ni  4.529192  6.343764  9.939341
 Ni  0.948091 11.809744 11.758890
 Ni  2.759001  9.936027 11.805742
 Ni  0.979565 10.013516  9.991615
 Ni  4.651070 11.770359 11.761653
 Ni  6.404576  9.935239 11.737208
 Ni  6.423120 11.724137  9.955523
 Ni  4.561579  9.942786  9.996101
 Ni  0.927200  0.909483  0.919733
 Ni  2.817290 13.452080  0.887853
 Ni  2.782604 13.755513 11.736886
 Ni  0.933377 13.575441 13.564489
 Ni  4.646205  0.852490  0.918355
 Ni  6.440688 13.590873  0.917351
 Ni  6.450410  0.897208 13.593087
 Ni  4.664602 13.558246 13.556500
 Ni  0.975146  6.359338  2.691306
 Ni  2.816294  2.727386  0.890705
 Ni  2.885588  4.501852 13.514897
 Ni  0.989139  2.690930 13.562590
 Ni  6.389643  0.900880  2.740828
 Ni  6.387214  4.527771 13.605810
 Ni  6.409169  2.712420  0.969848
 Ni  0.991124  8.145386  0.846720
 Ni  2.777010  6.377122  0.878332
 Ni  0.992809  6.289048 13.504700
 Ni  6.424743  6.354046  0.911589
 Ni  6.412867  8.147629 13.531503
 Ni  4.632850  6.387682 13.564561
 Ni  0.940240 11.762823  0.858969
 Ni  4.627366  9.932115 13.527520
 Ni  6.441447  9.934770  0.903116
 Ni  6.462924 11.740779 13.525175
%endblock positions_abs_intermediate 
     kpoint_mp_grid 1 1 1 
     fix_com : false