#######################################################
#CASTEP cell file: /home/u2093113/Documents/kART/CASTEP/castep.cell
#Created using the Atomic Simulation Environment (ASE)#
#######################################################

%BLOCK LATTICE_CART
14.464828  0.000000  0.000000
 0.000000 14.464828  0.000000
 0.000000  0.000000 14.464828
%ENDBLOCK LATTICE_CART

%BLOCK POSITIONS_ABS
Al  8.230291  4.448909 11.769383
Al 11.848815  4.462041 11.757515
Al  8.227003  8.096007 11.809560
Al 11.858422  8.086624 11.769743
Al  8.311760 11.697745 11.693209
Al 11.883532 11.687997 11.741831
Al  8.250720  0.853909 11.761287
Al 11.862155  0.853245 11.741037
Al  8.225511  4.430227  0.894201
Al 11.849002  4.473872  0.894594
Al  8.288920  8.001799  0.874249
Al 11.855500  8.074469  0.904285
Al  8.399587 11.804207  0.915883
Al 11.875079 11.681803  0.908360
Al  8.305755  0.823776  0.834061
Al 11.884974  0.863643  0.890665
Al  8.180223  4.472815  4.506763
Al 11.827136  4.488685  4.514533
Al  8.165905  8.058134  4.507100
Al 11.820599  8.070124  4.505662
Al  8.300969 11.706427  4.579356
Al 11.891875 11.670767  4.526790
Al  8.350769  0.831717  4.620074
Al 11.837542  0.853161  4.529428
Al  8.259355  4.460269  8.158419
Al 11.807375  4.486010  8.138843
Al  8.209011  8.080987  8.165903
Al 11.827035  8.080583  8.139514
Al  8.234066 11.693276  8.157060
Al 11.840937 11.668279  8.155082
Al  8.252424  0.845253  8.132117
Al 11.879249  0.842900  8.152268
Al  4.764494  2.654256  9.920176
Al  0.824855  0.871213  8.119120
Al  2.804256  2.758879  8.011136
Al  4.663294 13.541148 10.011126
Al  2.780645 13.411421  8.047464
Al  4.608814  9.988335 10.067688
Al  0.988524  9.875203  9.926589
Al  2.856497  2.700162  4.642760
Al  0.868490 11.665461  4.650224
Al  4.728697  9.971030  6.340447
Al  2.792054  9.653626  4.532251
Al  4.928118  6.195263  6.154843
Al  4.712444  8.026859  8.243087
Al  2.769143  6.273738  4.415002
Al  0.820886  6.267497  6.334858
Al  4.545634  0.852250  0.902976
Al  6.374414  0.843341  2.821650
Al  2.640552  0.784575 13.533998
Al  0.915176  2.674039  2.655667
Al  6.249914 11.797629  2.758074
Al  0.897696 13.641054  2.663406
Al  2.887904 11.700361  2.614790
Al  6.236956  9.790887  0.862466
Al  4.887580  6.225747  2.748420
Al  2.727958  6.152130  0.905258
Al  2.697802  2.716488 11.719991
Al  6.288114 11.821573 13.496206
Al  2.763392 11.713654 13.551780
Al  2.801019  6.177597 11.664673
Al  2.760369  6.168983  8.305193
Al  2.767848  8.196274 13.531800
Ni  8.215255  6.242671 13.545161
Ni 10.047145  4.455420 13.564526
Ni 10.046900  6.275914 11.780992
Ni 11.861402  6.275429 13.565828
Ni 13.661949  4.478517 13.544750
Ni 13.640475  6.289621 11.756076
Ni  8.176329  9.976577 13.668939
Ni 10.044472  8.086087 13.570864
Ni 10.052469  9.881056 11.781031
Ni 11.867536  9.878112 13.575285
Ni 13.686010  8.076665 13.568985
Ni 13.675042  9.885168 11.766240
Ni  8.250842 13.462821 13.551093
Ni 10.081866 11.694019 13.548391
Ni 10.055298 13.507557 11.745843
Ni 11.870930 13.507459 13.534541
Ni 13.658069 11.687012 13.560867
Ni 13.672586 13.494499 11.732406
Ni  8.229924  2.650737 13.570822
Ni 10.077283  0.847824 13.543349
Ni 10.040860  2.656523 11.752291
Ni 11.855733  2.662495 13.535759
Ni 13.683232  0.857389 13.528160
Ni 13.668308  2.661817 11.741474
Ni  8.162845  6.245888  2.701391
Ni 10.014640  4.466534  2.709088
Ni 10.041394  6.249259  0.895567
Ni 11.823734  6.284795  2.688897
Ni 13.649588  4.492862  2.696824
Ni 13.675066  6.276480  0.888099
Ni  8.170483  9.994681  2.601933
Ni  9.987898  8.081377  2.707332
Ni 10.054881  9.887126  0.908446
Ni 11.850403  9.859881  2.714115
Ni 13.674610  8.075966  2.700160
Ni 13.685470  9.882026  0.918685
Ni  8.239423 13.524328  2.740137
Ni 10.081588 11.700412  2.732606
Ni 10.112759 13.532502  0.905306
Ni 11.890324 13.486506  2.720220
Ni 13.704945 11.673644  2.717424
Ni 13.652826 13.506667  0.871836
Ni  8.245411  2.566468  2.719915
Ni 10.087084  0.833615  2.712934
Ni 10.056889  2.650750  0.906813
Ni 11.849875  2.692798  2.713100
Ni 13.609160  0.887423  2.734090
Ni 13.624947  2.671496  0.858892
Ni  8.167082  6.265110  6.313128
Ni 10.017727  4.479866  6.317511
Ni  9.979110  6.275898  4.507086
Ni 11.838504  6.285327  6.322083
Ni 13.622961  4.445806  6.324880
Ni 13.615219  6.272373  4.473169
Ni  8.203576  9.889153  6.334842
Ni  9.993417  8.074705  6.316558
Ni 10.005262  9.874583  4.501007
Ni 11.816483  9.866817  6.319787
Ni 13.635802  8.103810  6.325236
Ni 13.663434  9.840265  4.521212
Ni  8.260003 13.504291  6.348109
Ni 10.054413 11.678720  6.349880
Ni 10.078534 13.486951  4.529700
Ni 11.855525 13.485665  6.342435
Ni 13.631330 11.654350  6.379745
Ni 13.665377 13.520633  4.544571
Ni  8.268425  2.646596  6.325127
Ni 10.087472  0.840066  6.366357
Ni 10.050675  2.669462  4.514930
Ni 11.826257  2.667892  6.331348
Ni 13.632827  0.872797  6.302147
Ni 13.635780  2.677688  4.534691
Ni  8.238616  6.281243  9.995731
Ni 10.033595  4.467744  9.967304
Ni 10.017402  6.288261  8.140143
Ni 11.818329  6.273251  9.966110
Ni 13.643015  4.480600  9.947754
Ni 13.612377  6.282959  8.177100
Ni  8.228563  9.873087  9.981197
Ni 10.036118  8.084487  9.974197
Ni 10.021888  9.869525  8.146855
Ni 11.858747  9.874223  9.951965
Ni 13.650354  8.066676  9.949903
Ni 13.650187  9.854680  8.120239
Ni  8.241971 13.516214  9.936818
Ni 10.060519 11.681400  9.942026
Ni 10.058756 13.495725  8.150061
Ni 11.847857 13.499590  9.948673
Ni 13.671917 11.701651  9.918755
Ni 13.642569 13.470830  8.128882
Ni  8.228554  2.654466  9.957650
Ni 10.049521  0.850933  9.946581
Ni 10.045882  2.659072  8.149810
Ni 11.846442  2.669153  9.953323
Ni 13.636989  0.842289  9.958925
Ni 13.602705  2.704046  8.135512
Ni  1.012042  6.282624 13.537554
Ni  2.787033  4.436887 13.546138
Ni  0.948071  4.488705 11.728327
Ni  4.551694  6.254973 13.556252
Ni  6.378478  4.430319 13.568090
Ni  4.593098  8.042275 11.767725
Ni  4.635164  4.411380 11.759949
Ni  0.980826  8.053686 11.754337
Ni  0.956486  9.902819 13.556614
Ni  4.605578  9.900688 13.503539
Ni  6.377059  8.047153 13.559173
Ni  6.431446  9.921973 11.802067
Ni  2.751837  9.910940 11.730043
Ni  0.941506 13.476607 13.560010
Ni  4.537486 11.753450 11.753526
Ni  2.748648 13.529696 11.703261
Ni  4.557232 13.598017 13.540015
Ni  4.611243 11.738188  0.856105
Ni  6.433582 13.539717 11.758094
Ni  0.970338  2.674869 13.535250
Ni  4.563756  0.903112 11.745923
Ni  0.986704  0.849604 11.689432
Ni  4.571927  2.611119 13.551717
Ni  6.413139  0.828182 13.534387
Ni  6.421484  2.634720 11.797618
Ni  2.779245  0.892125  9.850268
Ni  0.957109  6.244107  2.684460
Ni  2.825054  4.431844  2.718347
Ni  0.952345  4.446789  0.870098
Ni  6.438699  4.337070  2.678257
Ni  6.406176  6.244176  0.849975
Ni  4.605913  4.424445  0.895141
Ni  1.054592  9.906120  2.747159
Ni  2.823431  7.988690  2.662686
Ni  2.809242  9.887397  0.899836
Ni  1.016660  8.080987  0.900489
Ni  4.585502  9.843613  2.701033
Ni  6.454065  8.118842  2.675229
Ni  4.530857  7.999419  0.880703
Ni  0.930269  0.891685  0.876481
Ni  0.979343 11.687750  0.924226
Ni  4.553246 13.584313  2.734879
Ni  6.406781 13.548617  0.914451
Ni  2.751683 13.538709  0.912453
Ni  2.749060  0.925912  2.768767
Ni  2.783858  2.660816  0.866670
Ni  4.612992  2.642704  2.700301
Ni  6.406321  2.558785  0.898591
Ni  0.967672  4.465771  4.508223
Ni  6.468460  4.367180  6.355856
Ni  4.685151  4.448821  4.494990
Ni  1.022989  9.797049  6.342409
Ni  0.963644  8.016188  4.508054
Ni  2.901371  7.872548  6.418533
Ni  6.393409  8.127859  6.360177
Ni  6.444755  9.913981  4.473347
Ni  4.690687  8.048972  4.485762
Ni  0.959329 13.515230  6.343624
Ni  2.782063 11.614183  6.282940
Ni  2.697026 13.475526  4.473621
Ni  4.594280 13.482206  6.294721
Ni  6.431902 11.733600  6.340739
Ni  6.410297 13.505020  4.560083
Ni  4.516994 11.686315  4.536894
Ni  0.960517  2.715304  6.339325
Ni  2.759980  0.830854  6.387676
Ni  0.979954  0.911502  4.581675
Ni  4.654140  2.661126  6.343873
Ni  6.409736  0.839536  6.330556
Ni  6.426393  2.626428  4.537192
Ni  4.565925  0.835680  4.578585
Ni  0.940408  6.274588  9.961887
Ni  2.820189  4.351718  9.924309
Ni  2.824759  4.678063  6.310627
Ni  0.942770  4.481056  8.139649
Ni  4.650131  6.212795  9.960451
Ni  6.445404  4.486538  9.954736
Ni  6.456662  6.255638  8.159961
Ni  4.672572  4.466250  8.122145
Ni  0.971196 11.716209 11.732534
Ni  2.827692  8.085180  9.936964
Ni  2.893346  9.859686  8.100937
Ni  1.002384  8.047788  8.139270
Ni  6.394054  6.249824 11.780221
Ni  6.394655  9.902707  8.212033
Ni  6.411848  8.067116 10.015552
Ni  0.988474 13.507461  9.889868
Ni  2.768033 11.730825  9.922148
Ni  0.986509 11.641073  8.089220
Ni  6.433099 11.716540  9.975562
Ni  6.419765 13.506606  8.112656
Ni  4.638599 11.749882  8.154589
Ni  0.941707  2.665623  9.898705
Ni  4.631707  0.827686  8.108111
Ni  6.446983  0.840014  9.935140
Ni  6.471717  2.633443  8.116402
%ENDBLOCK POSITIONS_ABS

