#######################################################
#CASTEP cell file: /home/u2093113/Documents/kART/CASTEP/castep.cell
#Created using the Atomic Simulation Environment (ASE)#
#######################################################

%BLOCK LATTICE_CART
14.464828  0.000000  0.000000
 0.000000 14.464828  0.000000
 0.000000  0.000000 14.464828
%ENDBLOCK LATTICE_CART

%BLOCK POSITIONS_ABS
Al  8.221943  4.454733 11.763102
Al 11.841056  4.455617 11.758030
Al  8.211869  8.086390 11.796215
Al 11.851263  8.088218 11.770176
Al  8.295649 11.685503 11.689282
Al 11.873844 11.687700 11.742821
Al  8.235473  0.855789 11.761104
Al 11.851612  0.846312 11.742443
Al  8.212662  4.445587  0.922185
Al 11.856695  4.469160  0.879045
Al  8.281858  7.980744  0.904018
Al 11.865823  8.074536  0.887868
Al  8.389216 11.799935  0.915615
Al 11.869764 11.685677  0.898023
Al  8.290969  0.827165  0.833199
Al 11.876640  0.857581  0.881529
Al  8.307090  4.370053  4.519609
Al 11.843665  4.473809  4.513402
Al  8.296905  8.167507  4.500124
Al 11.840688  8.078163  4.504445
Al  8.298407 11.699765  4.574859
Al 11.905747 11.686405  4.523535
Al  8.342652  0.839693  4.622405
Al 11.845349  0.838061  4.528063
Al  8.272866  4.459698  8.139141
Al 11.819275  4.473922  8.153891
Al  8.220378  8.068883  8.142582
Al 11.838955  8.087005  8.150743
Al  8.225984 11.690777  8.156643
Al 11.836894 11.674054  8.161528
Al  8.240909  0.844155  8.132977
Al 11.875504  0.833951  8.158892
Al  4.768427  2.669135  9.905245
Al  0.826210  0.862737  8.126482
Al  2.801788  2.745914  8.019231
Al  4.669145 13.534321 10.005747
Al  2.786433 13.409032  8.049784
Al  4.610016  9.942548 10.019466
Al  0.992957  9.876501  9.926832
Al  2.842142  2.684472  4.639262
Al  0.858999 11.678766  4.649671
Al  4.722371  9.938787  6.318421
Al  2.760741  9.676319  4.532215
Al  6.324769  6.253224  4.742663
Al  4.714276  7.938026  8.114324
Al  2.797976  6.275237  4.507679
Al  0.807533  6.258785  6.340274
Al  4.544517  0.866568  0.910007
Al  6.364077  0.856585  2.829600
Al  2.650372  0.782250 13.529192
Al  0.908434  2.665795  2.649837
Al  6.242374 11.792589  2.759218
Al  0.901394 13.642039  2.654024
Al  2.888821 11.699870  2.613178
Al  6.230232  9.757176  0.893321
Al  4.710192  6.226489  2.623372
Al  2.671650  6.151801  0.866046
Al  2.704125  2.712991 11.710921
Al  6.279772 11.802343 13.499458
Al  2.774504 11.704621 13.545749
Al  2.807849  6.179122 11.651541
Al  2.747712  6.159580  8.263285
Al  2.759706  8.199845 13.518048
Ni  8.206784  6.242785 13.546877
Ni 10.037238  4.457018 13.565569
Ni 10.036000  6.275751 11.773979
Ni 11.859999  6.273820 13.556053
Ni 13.660752  4.470724 13.532131
Ni 13.642078  6.287809 11.749638
Ni  8.160916  9.962417 13.675105
Ni 10.032030  8.082654 13.571817
Ni 10.037658  9.875573 11.779276
Ni 11.863070  9.880478 13.567710
Ni 13.686165  8.079519 13.556553
Ni 13.674706  9.888790 11.762483
Ni  8.236069 13.457963 13.552153
Ni 10.067177 11.689068 13.546087
Ni 10.038622 13.503630 11.746581
Ni 11.861420 13.504970 13.530911
Ni 13.657850 11.688152 13.555235
Ni 13.672552 13.489312 11.733326
Ni  8.216958  2.661739 13.578449
Ni 10.061312  0.846681 13.541626
Ni 10.026923  2.655404 11.752804
Ni 11.847868  2.655177 13.529367
Ni 13.682513  0.849170 13.521852
Ni 13.667134  2.652434 11.739202
Ni  8.202844  6.244039  2.785283
Ni 10.044464  4.459575  2.697319
Ni 10.041917  6.246923  0.896285
Ni 11.841502  6.282592  2.672030
Ni 13.650289  4.484473  2.690730
Ni 13.681416  6.273697  0.878979
Ni  8.168713  9.978316  2.586978
Ni 10.027248  8.085068  2.693030
Ni 10.054036  9.886132  0.901436
Ni 11.861369  9.870232  2.701402
Ni 13.677141  8.076449  2.693672
Ni 13.685846  9.888347  0.909449
Ni  8.230288 13.526032  2.739787
Ni 10.076985 11.701318  2.724234
Ni 10.099326 13.531405  0.901562
Ni 11.886651 13.486394  2.710909
Ni 13.707425 11.680844  2.708093
Ni 13.652676 13.505788  0.863140
Ni  8.235456  2.571765  2.716510
Ni 10.080751  0.832184  2.707731
Ni 10.050048  2.650344  0.903083
Ni 11.856359  2.680631  2.703301
Ni 13.609662  0.879858  2.722986
Ni 13.623726  2.659488  0.848437
Ni  8.253026  6.260293  6.277445
Ni 10.061698  4.463935  6.333530
Ni 10.050827  6.274164  4.506925
Ni 11.855735  6.281881  6.334656
Ni 13.619241  4.435955  6.330135
Ni 13.613964  6.267150  4.473326
Ni  8.219217  9.899262  6.339079
Ni 10.033305  8.084415  6.327641
Ni 10.051729  9.908942  4.499468
Ni 11.828568  9.881331  6.326999
Ni 13.632479  8.104004  6.330389
Ni 13.665944  9.846476  4.518113
Ni  8.252185 13.500672  6.345601
Ni 10.058063 11.687338  6.351454
Ni 10.071662 13.487306  4.526424
Ni 11.853408 13.488821  6.346002
Ni 13.629604 11.666274  6.384513
Ni 13.667575 13.524767  4.541813
Ni  8.262853  2.646213  6.336456
Ni 10.080362  0.835683  6.368328
Ni 10.082554  2.637249  4.517056
Ni 11.836645  2.648643  6.338109
Ni 13.635618  0.863938  6.307871
Ni 13.636979  2.666682  4.532464
Ni  8.231373  6.280728  9.971861
Ni 10.031687  4.464820  9.966281
Ni 10.043431  6.284398  8.149330
Ni 11.822903  6.271312  9.975597
Ni 13.641730  4.471814  9.957171
Ni 13.610578  6.279312  8.188197
Ni  8.217865  9.859290  9.968008
Ni 10.035377  8.083301  9.970989
Ni 10.026110  9.873886  8.150390
Ni 11.855457  9.879149  9.957670
Ni 13.646017  8.070818  9.957456
Ni 13.647094  9.864300  8.128636
Ni  8.227818 13.510834  9.936071
Ni 10.048427 11.679105  9.944087
Ni 10.049253 13.494673  8.153343
Ni 11.839830 13.495913  9.954081
Ni 13.671641 11.703230  9.923879
Ni 13.641249 13.469621  8.136215
Ni  8.221225  2.657452  9.950215
Ni 10.037335  0.846004  9.950743
Ni 10.048273  2.649650  8.153972
Ni 11.842042  2.658298  9.961037
Ni 13.635881  0.833566  9.965103
Ni 13.602168  2.690349  8.146062
Ni  0.999751  6.280802 13.516333
Ni  2.779647  4.431214 13.532313
Ni  0.949553  4.484574 11.720663
Ni  4.547611  6.255723 13.557999
Ni  6.373673  4.437916 13.568763
Ni  4.592853  8.034502 11.755167
Ni  4.634745  4.416677 11.749549
Ni  0.984439  8.053699 11.741198
Ni  0.957842  9.904318 13.547643
Ni  4.608832  9.890774 13.505245
Ni  6.371932  8.040822 13.563023
Ni  6.420274  9.902865 11.787080
Ni  2.763642  9.900379 11.714844
Ni  0.948577 13.472524 13.554980
Ni  4.544215 11.728812 11.736713
Ni  2.759647 13.521882 11.699833
Ni  4.561261 13.589676 13.539554
Ni  4.612304 11.722283  0.865496
Ni  6.428727 13.529999 11.757837
Ni  0.971696  2.667118 13.525686
Ni  4.568987  0.902219 11.740266
Ni  0.992315  0.841235 11.688999
Ni  4.570194  2.613762 13.546414
Ni  6.405774  0.836780 13.540380
Ni  6.416295  2.641414 11.792719
Ni  2.785927  0.888481  9.850028
Ni  0.956548  6.237799  2.698072
Ni  2.801516  4.448093  2.719080
Ni  0.939335  4.434253  0.862608
Ni  6.423598  4.417285  2.758202
Ni  6.411412  6.246435  0.864431
Ni  4.592533  4.422755  0.881693
Ni  1.046613  9.910692  2.742051
Ni  2.792435  7.976541  2.670716
Ni  2.800119  9.885197  0.901233
Ni  1.006814  8.083861  0.893148
Ni  4.573464  9.818203  2.718471
Ni  6.434367  8.048368  2.756036
Ni  4.505397  8.002935  0.870508
Ni  0.934666  0.886999  0.867217
Ni  0.981549 11.689201  0.916348
Ni  4.552797 13.585190  2.735732
Ni  6.396185 13.546648  0.916108
Ni  2.760075 13.534374  0.909803
Ni  2.753170  0.928725  2.763631
Ni  2.778818  2.663646  0.864623
Ni  4.607938  2.682126  2.723530
Ni  6.395441  2.591290  0.923325
Ni  0.960322  4.459515  4.510085
Ni  6.437121  4.421570  6.339121
Ni  4.616955  4.507966  4.550196
Ni  0.998776  9.815818  6.347004
Ni  0.955849  8.012660  4.510714
Ni  2.820359  7.946371  6.424425
Ni  6.428643  8.108005  6.316581
Ni  6.441486  9.918045  4.465398
Ni  4.614439  8.032311  4.507852
Ni  0.959830 13.515487  6.348080
Ni  2.780136 11.615195  6.282921
Ni  2.693696 13.476784  4.469359
Ni  4.592823 13.479430  6.291512
Ni  6.424396 11.722722  6.334308
Ni  6.407054 13.505720  4.558500
Ni  4.511462 11.684222  4.538176
Ni  0.950915  2.699713  6.345982
Ni  2.759561  0.826487  6.387746
Ni  0.977232  0.906319  4.579159
Ni  4.648269  2.678316  6.336128
Ni  6.403397  0.840865  6.327188
Ni  6.408128  2.642563  4.544825
Ni  4.562305  0.836081  4.578735
Ni  0.943735  6.271846  9.956995
Ni  2.815519  4.357245  9.914186
Ni  2.790256  4.609917  6.327770
Ni  0.929361  4.469811  8.148119
Ni  4.652407  6.210964  9.911173
Ni  6.447223  4.493838  9.935401
Ni  6.477651  6.231812  8.091182
Ni  4.664151  4.476869  8.093924
Ni  0.978949 11.712966 11.730442
Ni  2.836485  8.069842  9.906288
Ni  2.881284  9.860635  8.097472
Ni  0.979942  8.052528  8.147787
Ni  6.383536  6.251069 11.766457
Ni  6.393829  9.875479  8.179675
Ni  6.394933  8.049822  9.971065
Ni  0.995736 13.502278  9.892973
Ni  2.779051 11.724485  9.917477
Ni  0.987131 11.645575  8.094913
Ni  6.423190 11.695690  9.962015
Ni  6.412632 13.501609  8.108277
Ni  4.637852 11.733937  8.139878
Ni  0.942307  2.656734  9.901049
Ni  4.632091  0.830215  8.104469
Ni  6.441343  0.845284  9.929146
Ni  6.462377  2.650922  8.097770
%ENDBLOCK POSITIONS_ABS

