#######################################################
#CASTEP cell file: /home/u2093113/Documents/kART/CASTEP/castep.cell
#Created using the Atomic Simulation Environment (ASE)#
#######################################################

%BLOCK LATTICE_CART
14.464828  0.000000  0.000000
 0.000000 14.464828  0.000000
 0.000000  0.000000 14.464828
%ENDBLOCK LATTICE_CART

%BLOCK POSITIONS_ABS
Al  8.226117  4.451821 11.766242
Al 11.844936  4.458829 11.757772
Al  8.219436  8.091198 11.802888
Al 11.854843  8.087421 11.769960
Al  8.303704 11.691624 11.691245
Al 11.878688 11.687849 11.742326
Al  8.243097  0.854849 11.761196
Al 11.856884  0.849779 11.741740
Al  8.219086  4.437907  0.908193
Al 11.852848  4.471516  0.886820
Al  8.285389  7.991271  0.889134
Al 11.860662  8.074503  0.896076
Al  8.394401 11.802071  0.915749
Al 11.872421 11.683740  0.903192
Al  8.298362  0.825471  0.833630
Al 11.880807  0.860612  0.886097
Al  8.243657  4.421434  4.513186
Al 11.835401  4.481247  4.513968
Al  8.231405  8.112821  4.503612
Al 11.830643  8.074144  4.505053
Al  8.299688 11.703096  4.577108
Al 11.898811 11.678586  4.525162
Al  8.346711  0.835705  4.621239
Al 11.841446  0.845611  4.528746
Al  8.266110  4.459984  8.148780
Al 11.813325  4.479966  8.146367
Al  8.214695  8.074935  8.154242
Al 11.832995  8.083794  8.145129
Al  8.230025 11.692027  8.156852
Al 11.838916 11.671167  8.158305
Al  8.246666  0.844704  8.132547
Al 11.877376  0.838425  8.155580
Al  4.766460  2.661695  9.912711
Al  0.825533  0.866975  8.122801
Al  2.803022  2.752397  8.015183
Al  4.666219 13.537735 10.008436
Al  2.783539 13.410226  8.048624
Al  4.609415  9.965442 10.043577
Al  0.990740  9.875852  9.926711
Al  2.849320  2.692317  4.641011
Al  0.863744 11.672113  4.649947
Al  4.725534  9.954908  6.329434
Al  2.776397  9.664973  4.532233
Al  5.626443  6.224244  5.448753
Al  4.713360  7.982442  8.178705
Al  2.783559  6.274488  4.461341
Al  0.814209  6.263141  6.337566
Al  4.545076  0.859409  0.906491
Al  6.369246  0.849963  2.825625
Al  2.645462  0.783412 13.531595
Al  0.911805  2.669917  2.652752
Al  6.246144 11.795109  2.758646
Al  0.899545 13.641547  2.658715
Al  2.888362 11.700115  2.613984
Al  6.233594  9.774032  0.877893
Al  4.798886  6.226118  2.685896
Al  2.699804  6.151966  0.885652
Al  2.700964  2.714739 11.715456
Al  6.283943 11.811958 13.497832
Al  2.768948 11.709137 13.548765
Al  2.804434  6.178360 11.658107
Al  2.754040  6.164282  8.284239
Al  2.763777  8.198060 13.524924
Ni  8.211020  6.242728 13.546019
Ni 10.042192  4.456219 13.565048
Ni 10.041450  6.275832 11.777485
Ni 11.860701  6.274625 13.560941
Ni 13.661350  4.474621 13.538441
Ni 13.641277  6.288715 11.752857
Ni  8.168623  9.969497 13.672022
Ni 10.038251  8.084371 13.571341
Ni 10.045063  9.878314 11.780153
Ni 11.865303  9.879295 13.571497
Ni 13.686087  8.078092 13.562769
Ni 13.674874  9.886979 11.764361
Ni  8.243456 13.460392 13.551623
Ni 10.074521 11.691544 13.547239
Ni 10.046960 13.505593 11.746212
Ni 11.866175 13.506215 13.532726
Ni 13.657960 11.687582 13.558051
Ni 13.672569 13.491905 11.732866
Ni  8.223441  2.656238 13.574635
Ni 10.069298  0.847252 13.542487
Ni 10.033891  2.655963 11.752548
Ni 11.851801  2.658836 13.532563
Ni 13.682872  0.853280 13.525006
Ni 13.667721  2.657125 11.740338
Ni  8.182844  6.244964  2.743337
Ni 10.029552  4.463055  2.703204
Ni 10.041655  6.248091  0.895926
Ni 11.832618  6.283693  2.680463
Ni 13.649938  4.488667  2.693777
Ni 13.678241  6.275089  0.883539
Ni  8.169598  9.986499  2.594455
Ni 10.007573  8.083223  2.700181
Ni 10.054459  9.886629  0.904941
Ni 11.855886  9.865057  2.707758
Ni 13.675876  8.076208  2.696916
Ni 13.685658  9.885187  0.914067
Ni  8.234855 13.525180  2.739962
Ni 10.079286 11.700865  2.728420
Ni 10.106042 13.531954  0.903434
Ni 11.888488 13.486450  2.715565
Ni 13.706185 11.677244  2.712759
Ni 13.652751 13.506228  0.867488
Ni  8.240433  2.569116  2.718213
Ni 10.083917  0.832899  2.710332
Ni 10.053468  2.650547  0.904948
Ni 11.853117  2.686714  2.708200
Ni 13.609411  0.883640  2.728538
Ni 13.624337  2.665492  0.853664
Ni  8.210054  6.262701  6.295287
Ni 10.039713  4.471901  6.325520
Ni 10.014968  6.275031  4.507005
Ni 11.847120  6.283604  6.328370
Ni 13.621101  4.440880  6.327508
Ni 13.614592  6.269762  4.473247
Ni  8.211397  9.894208  6.336961
Ni 10.013361  8.079560  6.322099
Ni 10.028496  9.891762  4.500238
Ni 11.822526  9.874074  6.323393
Ni 13.634140  8.103907  6.327813
Ni 13.664689  9.843371  4.519662
Ni  8.256094 13.502482  6.346855
Ni 10.056238 11.683029  6.350667
Ni 10.075098 13.487129  4.528062
Ni 11.854467 13.487243  6.344218
Ni 13.630467 11.660312  6.382129
Ni 13.666476 13.522700  4.543192
Ni  8.265639  2.646405  6.330791
Ni 10.083917  0.837875  6.367342
Ni 10.066615  2.653355  4.515993
Ni 11.831451  2.658268  6.334729
Ni 13.634223  0.868367  6.305009
Ni 13.636380  2.672185  4.533577
Ni  8.234994  6.280985  9.983796
Ni 10.032641  4.466282  9.966792
Ni 10.030417  6.286330  8.144736
Ni 11.820616  6.272281  9.970854
Ni 13.642373  4.476207  9.952463
Ni 13.611477  6.281135  8.182649
Ni  8.223214  9.866188  9.974603
Ni 10.035748  8.083894  9.972593
Ni 10.023999  9.871706  8.148623
Ni 11.857102  9.876686  9.954818
Ni 13.648186  8.068747  9.953679
Ni 13.648640  9.859490  8.124437
Ni  8.234895 13.513524  9.936444
Ni 10.054473 11.680253  9.943056
Ni 10.054005 13.495199  8.151702
Ni 11.843843 13.497752  9.951377
Ni 13.671779 11.702440  9.921317
Ni 13.641909 13.470226  8.132549
Ni  8.224889  2.655959  9.953932
Ni 10.043428  0.848468  9.948662
Ni 10.047078  2.654361  8.151891
Ni 11.844242  2.663725  9.957180
Ni 13.636435  0.837928  9.962014
Ni 13.602436  2.697197  8.140787
Ni  1.005896  6.281713 13.526944
Ni  2.783340  4.434051 13.539226
Ni  0.948812  4.486639 11.724495
Ni  4.549653  6.255348 13.557126
Ni  6.376076  4.434117 13.568427
Ni  4.592976  8.038388 11.761446
Ni  4.634955  4.414029 11.754749
Ni  0.982633  8.053693 11.747767
Ni  0.957164  9.903568 13.552129
Ni  4.607205  9.895731 13.504392
Ni  6.374495  8.043988 13.561098
Ni  6.425860  9.912419 11.794574
Ni  2.757740  9.905660 11.722444
Ni  0.945041 13.474566 13.557495
Ni  4.540851 11.741131 11.745119
Ni  2.754148 13.525789 11.701547
Ni  4.559246 13.593847 13.539784
Ni  4.611774 11.730236  0.860801
Ni  6.431155 13.534858 11.757966
Ni  0.971017  2.670993 13.530468
Ni  4.566371  0.902665 11.743095
Ni  0.989509  0.845419 11.689216
Ni  4.571061  2.612441 13.549065
Ni  6.409457  0.832481 13.537384
Ni  6.418890  2.638067 11.795168
Ni  2.782586  0.890303  9.850148
Ni  0.956829  6.240953  2.691266
Ni  2.813285  4.439969  2.718714
Ni  0.945840  4.440521  0.866353
Ni  6.431149  4.377178  2.718230
Ni  6.408794  6.245305  0.857203
Ni  4.599223  4.423600  0.888417
Ni  1.050603  9.908406  2.744605
Ni  2.807933  7.982616  2.666701
Ni  2.804680  9.886297  0.900534
Ni  1.011737  8.082424  0.896819
Ni  4.579483  9.830908  2.709752
Ni  6.444216  8.083605  2.715632
Ni  4.518127  8.001177  0.875605
Ni  0.932467  0.889342  0.871849
Ni  0.980446 11.688476  0.920287
Ni  4.553021 13.584751  2.735305
Ni  6.401483 13.547633  0.915279
Ni  2.755879 13.536541  0.911128
Ni  2.751115  0.927319  2.766199
Ni  2.781338  2.662231  0.865647
Ni  4.610465  2.662415  2.711915
Ni  6.400881  2.575037  0.910958
Ni  0.963997  4.462643  4.509154
Ni  6.452791  4.394375  6.347489
Ni  4.651053  4.478393  4.522593
Ni  1.010882  9.806434  6.344707
Ni  0.959747  8.014424  4.509384
Ni  2.860865  7.909460  6.421479
Ni  6.411026  8.117932  6.338379
Ni  6.443120  9.916013  4.469372
Ni  4.652563  8.040642  4.496807
Ni  0.959579 13.515358  6.345852
Ni  2.781100 11.614689  6.282930
Ni  2.695361 13.476155  4.471490
Ni  4.593551 13.480818  6.293116
Ni  6.428149 11.728161  6.337523
Ni  6.408675 13.505370  4.559291
Ni  4.514228 11.685269  4.537535
Ni  0.955716  2.707508  6.342654
Ni  2.759771  0.828671  6.387711
Ni  0.978593  0.908910  4.580417
Ni  4.651205  2.669721  6.340001
Ni  6.406566  0.840201  6.328872
Ni  6.417261  2.634496  4.541009
Ni  4.564115  0.835880  4.578660
Ni  0.942072  6.273217  9.959441
Ni  2.817854  4.354481  9.919247
Ni  2.807507  4.643990  6.319198
Ni  0.936066  4.475434  8.143884
Ni  4.651269  6.211880  9.935812
Ni  6.446314  4.490188  9.945069
Ni  6.467157  6.243725  8.125571
Ni  4.668362  4.471560  8.108034
Ni  0.975072 11.714587 11.731488
Ni  2.832089  8.077511  9.921626
Ni  2.887315  9.860161  8.099204
Ni  0.991163  8.050158  8.143529
Ni  6.388795  6.250447 11.773339
Ni  6.394242  9.889093  8.195854
Ni  6.403391  8.058469  9.993309
Ni  0.992105 13.504870  9.891421
Ni  2.773542 11.727655  9.919813
Ni  0.986820 11.643324  8.092067
Ni  6.428144 11.706115  9.968788
Ni  6.416199 13.504107  8.110467
Ni  4.638225 11.741910  8.147233
Ni  0.942007  2.661178  9.899877
Ni  4.631899  0.828950  8.106290
Ni  6.444163  0.842649  9.932143
Ni  6.467047  2.642182  8.107086
%ENDBLOCK POSITIONS_ABS

