%block lattice_abc 
  14.46482773 14.46482773 14.46482773 #lattice params 
 90.0  90.0  90.0 
     %endblock lattice_abc 
     fix_all_cell : true 
     %BLOCK POSITIONS_ABS 
Al  8.230291  4.448909 11.769383
 Al 11.848815  4.462041 11.757515
 Al  8.227003  8.096007 11.809560
 Al 11.858422  8.086624 11.769743
 Al  8.311760 11.697745 11.693209
 Al 11.883532 11.687997 11.741831
 Al  8.250720  0.853909 11.761287
 Al 11.862155  0.853245 11.741037
 Al  8.225511  4.430227  0.894201
 Al 11.849002  4.473872  0.894594
 Al  8.288920  8.001799  0.874249
 Al 11.855500  8.074469  0.904285
 Al  8.399587 11.804207  0.915883
 Al 11.875079 11.681803  0.908360
 Al  8.305755  0.823776  0.834061
 Al 11.884974  0.863643  0.890665
 Al  8.180223  4.472815  4.506763
 Al 11.827136  4.488685  4.514533
 Al  8.165905  8.058134  4.507100
 Al 11.820599  8.070124  4.505662
 Al  8.300969 11.706427  4.579356
 Al 11.891875 11.670767  4.526790
 Al  8.350769  0.831717  4.620074
 Al 11.837542  0.853161  4.529428
 Al  8.259355  4.460269  8.158419
 Al 11.807375  4.486010  8.138843
 Al  8.209011  8.080987  8.165903
 Al 11.827035  8.080583  8.139514
 Al  8.234066 11.693276  8.157060
 Al 11.840937 11.668279  8.155082
 Al  8.252424  0.845253  8.132117
 Al 11.879249  0.842900  8.152268
 Al  4.764494  2.654256  9.920176
 Al  0.824855  0.871213  8.119120
 Al  2.804256  2.758879  8.011136
 Al  4.663294 13.541148 10.011126
 Al  2.780645 13.411421  8.047464
 Al  4.608814  9.988335 10.067688
 Al  0.988524  9.875203  9.926589
 Al  2.856497  2.700162  4.642760
 Al  0.868490 11.665461  4.650224
 Al  4.728697  9.971030  6.340447
 Al  2.792054  9.653626  4.532251
 Al  4.928118  6.195263  6.154843
 Al  4.712444  8.026859  8.243087
 Al  2.769143  6.273738  4.415002
 Al  0.820886  6.267497  6.334858
 Al  4.545634  0.852250  0.902976
 Al  6.374414  0.843341  2.821650
 Al  2.640552  0.784575 13.533998
 Al  0.915176  2.674039  2.655667
 Al  6.249914 11.797629  2.758074
 Al  0.897696 13.641054  2.663406
 Al  2.887904 11.700361  2.614790
 Al  6.236956  9.790887  0.862466
 Al  4.887580  6.225747  2.748420
 Al  2.727958  6.152130  0.905258
 Al  2.697802  2.716488 11.719991
 Al  6.288114 11.821573 13.496206
 Al  2.763392 11.713654 13.551780
 Al  2.801019  6.177597 11.664673
 Al  2.760369  6.168983  8.305193
 Al  2.767848  8.196274 13.531800
 Ni  8.215255  6.242671 13.545161
 Ni 10.047145  4.455420 13.564526
 Ni 10.046900  6.275914 11.780992
 Ni 11.861402  6.275429 13.565828
 Ni 13.661949  4.478517 13.544750
 Ni 13.640475  6.289621 11.756076
 Ni  8.176329  9.976577 13.668939
 Ni 10.044472  8.086087 13.570864
 Ni 10.052469  9.881056 11.781031
 Ni 11.867536  9.878112 13.575285
 Ni 13.686010  8.076665 13.568985
 Ni 13.675042  9.885168 11.766240
 Ni  8.250842 13.462821 13.551093
 Ni 10.081866 11.694019 13.548391
 Ni 10.055298 13.507557 11.745843
 Ni 11.870930 13.507459 13.534541
 Ni 13.658069 11.687012 13.560867
 Ni 13.672586 13.494499 11.732406
 Ni  8.229924  2.650737 13.570822
 Ni 10.077283  0.847824 13.543349
 Ni 10.040860  2.656523 11.752291
 Ni 11.855733  2.662495 13.535759
 Ni 13.683232  0.857389 13.528160
 Ni 13.668308  2.661817 11.741474
 Ni  8.162845  6.245888  2.701391
 Ni 10.014640  4.466534  2.709088
 Ni 10.041394  6.249259  0.895567
 Ni 11.823734  6.284795  2.688897
 Ni 13.649588  4.492862  2.696824
 Ni 13.675066  6.276480  0.888099
 Ni  8.170483  9.994681  2.601933
 Ni  9.987898  8.081377  2.707332
 Ni 10.054881  9.887126  0.908446
 Ni 11.850403  9.859881  2.714115
 Ni 13.674610  8.075966  2.700160
 Ni 13.685470  9.882026  0.918685
 Ni  8.239423 13.524328  2.740137
 Ni 10.081588 11.700412  2.732606
 Ni 10.112759 13.532502  0.905306
 Ni 11.890324 13.486506  2.720220
 Ni 13.704945 11.673644  2.717424
 Ni 13.652826 13.506667  0.871836
 Ni  8.245411  2.566468  2.719915
 Ni 10.087084  0.833615  2.712934
 Ni 10.056889  2.650750  0.906813
 Ni 11.849875  2.692798  2.713100
 Ni 13.609160  0.887423  2.734090
 Ni 13.624947  2.671496  0.858892
 Ni  8.167082  6.265110  6.313128
 Ni 10.017727  4.479866  6.317511
 Ni  9.979110  6.275898  4.507086
 Ni 11.838504  6.285327  6.322083
 Ni 13.622961  4.445806  6.324880
 Ni 13.615219  6.272373  4.473169
 Ni  8.203576  9.889153  6.334842
 Ni  9.993417  8.074705  6.316558
 Ni 10.005262  9.874583  4.501007
 Ni 11.816483  9.866817  6.319787
 Ni 13.635802  8.103810  6.325236
 Ni 13.663434  9.840265  4.521212
 Ni  8.260003 13.504291  6.348109
 Ni 10.054413 11.678720  6.349880
 Ni 10.078534 13.486951  4.529700
 Ni 11.855525 13.485665  6.342435
 Ni 13.631330 11.654350  6.379745
 Ni 13.665377 13.520633  4.544571
 Ni  8.268425  2.646596  6.325127
 Ni 10.087472  0.840066  6.366357
 Ni 10.050675  2.669462  4.514930
 Ni 11.826257  2.667892  6.331348
 Ni 13.632827  0.872797  6.302147
 Ni 13.635780  2.677688  4.534691
 Ni  8.238616  6.281243  9.995731
 Ni 10.033595  4.467744  9.967304
 Ni 10.017402  6.288261  8.140143
 Ni 11.818329  6.273251  9.966110
 Ni 13.643015  4.480600  9.947754
 Ni 13.612377  6.282959  8.177100
 Ni  8.228563  9.873087  9.981197
 Ni 10.036118  8.084487  9.974197
 Ni 10.021888  9.869525  8.146855
 Ni 11.858747  9.874223  9.951965
 Ni 13.650354  8.066676  9.949903
 Ni 13.650187  9.854680  8.120239
 Ni  8.241971 13.516214  9.936818
 Ni 10.060519 11.681400  9.942026
 Ni 10.058756 13.495725  8.150061
 Ni 11.847857 13.499590  9.948673
 Ni 13.671917 11.701651  9.918755
 Ni 13.642569 13.470830  8.128882
 Ni  8.228554  2.654466  9.957650
 Ni 10.049521  0.850933  9.946581
 Ni 10.045882  2.659072  8.149810
 Ni 11.846442  2.669153  9.953323
 Ni 13.636989  0.842289  9.958925
 Ni 13.602705  2.704046  8.135512
 Ni  1.012042  6.282624 13.537554
 Ni  2.787033  4.436887 13.546138
 Ni  0.948071  4.488705 11.728327
 Ni  4.551694  6.254973 13.556252
 Ni  6.378478  4.430319 13.568090
 Ni  4.593098  8.042275 11.767725
 Ni  4.635164  4.411380 11.759949
 Ni  0.980826  8.053686 11.754337
 Ni  0.956486  9.902819 13.556614
 Ni  4.605578  9.900688 13.503539
 Ni  6.377059  8.047153 13.559173
 Ni  6.431446  9.921973 11.802067
 Ni  2.751837  9.910940 11.730043
 Ni  0.941506 13.476607 13.560010
 Ni  4.537486 11.753450 11.753526
 Ni  2.748648 13.529696 11.703261
 Ni  4.557232 13.598017 13.540015
 Ni  4.611243 11.738188  0.856105
 Ni  6.433582 13.539717 11.758094
 Ni  0.970338  2.674869 13.535250
 Ni  4.563756  0.903112 11.745923
 Ni  0.986704  0.849604 11.689432
 Ni  4.571927  2.611119 13.551717
 Ni  6.413139  0.828182 13.534387
 Ni  6.421484  2.634720 11.797618
 Ni  2.779245  0.892125  9.850268
 Ni  0.957109  6.244107  2.684460
 Ni  2.825054  4.431844  2.718347
 Ni  0.952345  4.446789  0.870098
 Ni  6.438699  4.337070  2.678257
 Ni  6.406176  6.244176  0.849975
 Ni  4.605913  4.424445  0.895141
 Ni  1.054592  9.906120  2.747159
 Ni  2.823431  7.988690  2.662686
 Ni  2.809242  9.887397  0.899836
 Ni  1.016660  8.080987  0.900489
 Ni  4.585502  9.843613  2.701033
 Ni  6.454065  8.118842  2.675229
 Ni  4.530857  7.999419  0.880703
 Ni  0.930269  0.891685  0.876481
 Ni  0.979343 11.687750  0.924226
 Ni  4.553246 13.584313  2.734879
 Ni  6.406781 13.548617  0.914451
 Ni  2.751683 13.538709  0.912453
 Ni  2.749060  0.925912  2.768767
 Ni  2.783858  2.660816  0.866670
 Ni  4.612992  2.642704  2.700301
 Ni  6.406321  2.558785  0.898591
 Ni  0.967672  4.465771  4.508223
 Ni  6.468460  4.367180  6.355856
 Ni  4.685151  4.448821  4.494990
 Ni  1.022989  9.797049  6.342409
 Ni  0.963644  8.016188  4.508054
 Ni  2.901371  7.872548  6.418533
 Ni  6.393409  8.127859  6.360177
 Ni  6.444755  9.913981  4.473347
 Ni  4.690687  8.048972  4.485762
 Ni  0.959329 13.515230  6.343624
 Ni  2.782063 11.614183  6.282940
 Ni  2.697026 13.475526  4.473621
 Ni  4.594280 13.482206  6.294721
 Ni  6.431902 11.733600  6.340739
 Ni  6.410297 13.505020  4.560083
 Ni  4.516994 11.686315  4.536894
 Ni  0.960517  2.715304  6.339325
 Ni  2.759980  0.830854  6.387676
 Ni  0.979954  0.911502  4.581675
 Ni  4.654140  2.661126  6.343873
 Ni  6.409736  0.839536  6.330556
 Ni  6.426393  2.626428  4.537192
 Ni  4.565925  0.835680  4.578585
 Ni  0.940408  6.274588  9.961887
 Ni  2.820189  4.351718  9.924309
 Ni  2.824759  4.678063  6.310627
 Ni  0.942770  4.481056  8.139649
 Ni  4.650131  6.212795  9.960451
 Ni  6.445404  4.486538  9.954736
 Ni  6.456662  6.255638  8.159961
 Ni  4.672572  4.466250  8.122145
 Ni  0.971196 11.716209 11.732534
 Ni  2.827692  8.085180  9.936964
 Ni  2.893346  9.859686  8.100937
 Ni  1.002384  8.047788  8.139270
 Ni  6.394054  6.249824 11.780221
 Ni  6.394655  9.902707  8.212033
 Ni  6.411848  8.067116 10.015552
 Ni  0.988474 13.507461  9.889868
 Ni  2.768033 11.730825  9.922148
 Ni  0.986509 11.641073  8.089220
 Ni  6.433099 11.716540  9.975562
 Ni  6.419765 13.506606  8.112656
 Ni  4.638599 11.749882  8.154589
 Ni  0.941707  2.665623  9.898705
 Ni  4.631707  0.827686  8.108111
 Ni  6.446983  0.840014  9.935140
 Ni  6.471717  2.633443  8.116402
 %ENDBLOCK POSITIONS_ABS
 
%block positions_abs_product 
     ang 
Al  8.221943  4.454733 11.763102
 Al 11.841056  4.455617 11.758030
 Al  8.211869  8.086390 11.796215
 Al 11.851263  8.088218 11.770176
 Al  8.295649 11.685503 11.689282
 Al 11.873844 11.687700 11.742821
 Al  8.235473  0.855789 11.761104
 Al 11.851612  0.846312 11.742443
 Al  8.212662  4.445587  0.922185
 Al 11.856695  4.469160  0.879045
 Al  8.281858  7.980744  0.904018
 Al 11.865823  8.074536  0.887868
 Al  8.389216 11.799935  0.915615
 Al 11.869764 11.685677  0.898023
 Al  8.290969  0.827165  0.833199
 Al 11.876640  0.857581  0.881529
 Al  8.307090  4.370053  4.519609
 Al 11.843665  4.473809  4.513402
 Al  8.296905  8.167507  4.500124
 Al 11.840688  8.078163  4.504445
 Al  8.298407 11.699765  4.574859
 Al 11.905747 11.686405  4.523535
 Al  8.342652  0.839693  4.622405
 Al 11.845349  0.838061  4.528063
 Al  8.272866  4.459698  8.139141
 Al 11.819275  4.473922  8.153891
 Al  8.220378  8.068883  8.142582
 Al 11.838955  8.087005  8.150743
 Al  8.225984 11.690777  8.156643
 Al 11.836894 11.674054  8.161528
 Al  8.240909  0.844155  8.132977
 Al 11.875504  0.833951  8.158892
 Al  4.768427  2.669135  9.905245
 Al  0.826210  0.862737  8.126482
 Al  2.801788  2.745914  8.019231
 Al  4.669145 13.534321 10.005747
 Al  2.786433 13.409032  8.049784
 Al  4.610016  9.942548 10.019466
 Al  0.992957  9.876501  9.926832
 Al  2.842142  2.684472  4.639262
 Al  0.858999 11.678766  4.649671
 Al  4.722371  9.938787  6.318421
 Al  2.760741  9.676319  4.532215
 Al  6.324769  6.253224  4.742663
 Al  4.714276  7.938026  8.114324
 Al  2.797976  6.275237  4.507679
 Al  0.807533  6.258785  6.340274
 Al  4.544517  0.866568  0.910007
 Al  6.364077  0.856585  2.829600
 Al  2.650372  0.782250 13.529192
 Al  0.908434  2.665795  2.649837
 Al  6.242374 11.792589  2.759218
 Al  0.901394 13.642039  2.654024
 Al  2.888821 11.699870  2.613178
 Al  6.230232  9.757176  0.893321
 Al  4.710192  6.226489  2.623372
 Al  2.671650  6.151801  0.866046
 Al  2.704125  2.712991 11.710921
 Al  6.279772 11.802343 13.499458
 Al  2.774504 11.704621 13.545749
 Al  2.807849  6.179122 11.651541
 Al  2.747712  6.159580  8.263285
 Al  2.759706  8.199845 13.518048
 Ni  8.206784  6.242785 13.546877
 Ni 10.037238  4.457018 13.565569
 Ni 10.036000  6.275751 11.773979
 Ni 11.859999  6.273820 13.556053
 Ni 13.660752  4.470724 13.532131
 Ni 13.642078  6.287809 11.749638
 Ni  8.160916  9.962417 13.675105
 Ni 10.032030  8.082654 13.571817
 Ni 10.037658  9.875573 11.779276
 Ni 11.863070  9.880478 13.567710
 Ni 13.686165  8.079519 13.556553
 Ni 13.674706  9.888790 11.762483
 Ni  8.236069 13.457963 13.552153
 Ni 10.067177 11.689068 13.546087
 Ni 10.038622 13.503630 11.746581
 Ni 11.861420 13.504970 13.530911
 Ni 13.657850 11.688152 13.555235
 Ni 13.672552 13.489312 11.733326
 Ni  8.216958  2.661739 13.578449
 Ni 10.061312  0.846681 13.541626
 Ni 10.026923  2.655404 11.752804
 Ni 11.847868  2.655177 13.529367
 Ni 13.682513  0.849170 13.521852
 Ni 13.667134  2.652434 11.739202
 Ni  8.202844  6.244039  2.785283
 Ni 10.044464  4.459575  2.697319
 Ni 10.041917  6.246923  0.896285
 Ni 11.841502  6.282592  2.672030
 Ni 13.650289  4.484473  2.690730
 Ni 13.681416  6.273697  0.878979
 Ni  8.168713  9.978316  2.586978
 Ni 10.027248  8.085068  2.693030
 Ni 10.054036  9.886132  0.901436
 Ni 11.861369  9.870232  2.701402
 Ni 13.677141  8.076449  2.693672
 Ni 13.685846  9.888347  0.909449
 Ni  8.230288 13.526032  2.739787
 Ni 10.076985 11.701318  2.724234
 Ni 10.099326 13.531405  0.901562
 Ni 11.886651 13.486394  2.710909
 Ni 13.707425 11.680844  2.708093
 Ni 13.652676 13.505788  0.863140
 Ni  8.235456  2.571765  2.716510
 Ni 10.080751  0.832184  2.707731
 Ni 10.050048  2.650344  0.903083
 Ni 11.856359  2.680631  2.703301
 Ni 13.609662  0.879858  2.722986
 Ni 13.623726  2.659488  0.848437
 Ni  8.253026  6.260293  6.277445
 Ni 10.061698  4.463935  6.333530
 Ni 10.050827  6.274164  4.506925
 Ni 11.855735  6.281881  6.334656
 Ni 13.619241  4.435955  6.330135
 Ni 13.613964  6.267150  4.473326
 Ni  8.219217  9.899262  6.339079
 Ni 10.033305  8.084415  6.327641
 Ni 10.051729  9.908942  4.499468
 Ni 11.828568  9.881331  6.326999
 Ni 13.632479  8.104004  6.330389
 Ni 13.665944  9.846476  4.518113
 Ni  8.252185 13.500672  6.345601
 Ni 10.058063 11.687338  6.351454
 Ni 10.071662 13.487306  4.526424
 Ni 11.853408 13.488821  6.346002
 Ni 13.629604 11.666274  6.384513
 Ni 13.667575 13.524767  4.541813
 Ni  8.262853  2.646213  6.336456
 Ni 10.080362  0.835683  6.368328
 Ni 10.082554  2.637249  4.517056
 Ni 11.836645  2.648643  6.338109
 Ni 13.635618  0.863938  6.307871
 Ni 13.636979  2.666682  4.532464
 Ni  8.231373  6.280728  9.971861
 Ni 10.031687  4.464820  9.966281
 Ni 10.043431  6.284398  8.149330
 Ni 11.822903  6.271312  9.975597
 Ni 13.641730  4.471814  9.957171
 Ni 13.610578  6.279312  8.188197
 Ni  8.217865  9.859290  9.968008
 Ni 10.035377  8.083301  9.970989
 Ni 10.026110  9.873886  8.150390
 Ni 11.855457  9.879149  9.957670
 Ni 13.646017  8.070818  9.957456
 Ni 13.647094  9.864300  8.128636
 Ni  8.227818 13.510834  9.936071
 Ni 10.048427 11.679105  9.944087
 Ni 10.049253 13.494673  8.153343
 Ni 11.839830 13.495913  9.954081
 Ni 13.671641 11.703230  9.923879
 Ni 13.641249 13.469621  8.136215
 Ni  8.221225  2.657452  9.950215
 Ni 10.037335  0.846004  9.950743
 Ni 10.048273  2.649650  8.153972
 Ni 11.842042  2.658298  9.961037
 Ni 13.635881  0.833566  9.965103
 Ni 13.602168  2.690349  8.146062
 Ni  0.999751  6.280802 13.516333
 Ni  2.779647  4.431214 13.532313
 Ni  0.949553  4.484574 11.720663
 Ni  4.547611  6.255723 13.557999
 Ni  6.373673  4.437916 13.568763
 Ni  4.592853  8.034502 11.755167
 Ni  4.634745  4.416677 11.749549
 Ni  0.984439  8.053699 11.741198
 Ni  0.957842  9.904318 13.547643
 Ni  4.608832  9.890774 13.505245
 Ni  6.371932  8.040822 13.563023
 Ni  6.420274  9.902865 11.787080
 Ni  2.763642  9.900379 11.714844
 Ni  0.948577 13.472524 13.554980
 Ni  4.544215 11.728812 11.736713
 Ni  2.759647 13.521882 11.699833
 Ni  4.561261 13.589676 13.539554
 Ni  4.612304 11.722283  0.865496
 Ni  6.428727 13.529999 11.757837
 Ni  0.971696  2.667118 13.525686
 Ni  4.568987  0.902219 11.740266
 Ni  0.992315  0.841235 11.688999
 Ni  4.570194  2.613762 13.546414
 Ni  6.405774  0.836780 13.540380
 Ni  6.416295  2.641414 11.792719
 Ni  2.785927  0.888481  9.850028
 Ni  0.956548  6.237799  2.698072
 Ni  2.801516  4.448093  2.719080
 Ni  0.939335  4.434253  0.862608
 Ni  6.423598  4.417285  2.758202
 Ni  6.411412  6.246435  0.864431
 Ni  4.592533  4.422755  0.881693
 Ni  1.046613  9.910692  2.742051
 Ni  2.792435  7.976541  2.670716
 Ni  2.800119  9.885197  0.901233
 Ni  1.006814  8.083861  0.893148
 Ni  4.573464  9.818203  2.718471
 Ni  6.434367  8.048368  2.756036
 Ni  4.505397  8.002935  0.870508
 Ni  0.934666  0.886999  0.867217
 Ni  0.981549 11.689201  0.916348
 Ni  4.552797 13.585190  2.735732
 Ni  6.396185 13.546648  0.916108
 Ni  2.760075 13.534374  0.909803
 Ni  2.753170  0.928725  2.763631
 Ni  2.778818  2.663646  0.864623
 Ni  4.607938  2.682126  2.723530
 Ni  6.395441  2.591290  0.923325
 Ni  0.960322  4.459515  4.510085
 Ni  6.437121  4.421570  6.339121
 Ni  4.616955  4.507966  4.550196
 Ni  0.998776  9.815818  6.347004
 Ni  0.955849  8.012660  4.510714
 Ni  2.820359  7.946371  6.424425
 Ni  6.428643  8.108005  6.316581
 Ni  6.441486  9.918045  4.465398
 Ni  4.614439  8.032311  4.507852
 Ni  0.959830 13.515487  6.348080
 Ni  2.780136 11.615195  6.282921
 Ni  2.693696 13.476784  4.469359
 Ni  4.592823 13.479430  6.291512
 Ni  6.424396 11.722722  6.334308
 Ni  6.407054 13.505720  4.558500
 Ni  4.511462 11.684222  4.538176
 Ni  0.950915  2.699713  6.345982
 Ni  2.759561  0.826487  6.387746
 Ni  0.977232  0.906319  4.579159
 Ni  4.648269  2.678316  6.336128
 Ni  6.403397  0.840865  6.327188
 Ni  6.408128  2.642563  4.544825
 Ni  4.562305  0.836081  4.578735
 Ni  0.943735  6.271846  9.956995
 Ni  2.815519  4.357245  9.914186
 Ni  2.790256  4.609917  6.327770
 Ni  0.929361  4.469811  8.148119
 Ni  4.652407  6.210964  9.911173
 Ni  6.447223  4.493838  9.935401
 Ni  6.477651  6.231812  8.091182
 Ni  4.664151  4.476869  8.093924
 Ni  0.978949 11.712966 11.730442
 Ni  2.836485  8.069842  9.906288
 Ni  2.881284  9.860635  8.097472
 Ni  0.979942  8.052528  8.147787
 Ni  6.383536  6.251069 11.766457
 Ni  6.393829  9.875479  8.179675
 Ni  6.394933  8.049822  9.971065
 Ni  0.995736 13.502278  9.892973
 Ni  2.779051 11.724485  9.917477
 Ni  0.987131 11.645575  8.094913
 Ni  6.423190 11.695690  9.962015
 Ni  6.412632 13.501609  8.108277
 Ni  4.637852 11.733937  8.139878
 Ni  0.942307  2.656734  9.901049
 Ni  4.632091  0.830215  8.104469
 Ni  6.441343  0.845284  9.929146
 Ni  6.462377  2.650922  8.097770
%endblock positions_abs_product 
%block positions_abs_intermediate 
     ang 
Al  8.226117  4.451821 11.766242
 Al 11.844936  4.458829 11.757772
 Al  8.219436  8.091198 11.802888
 Al 11.854843  8.087421 11.769960
 Al  8.303704 11.691624 11.691245
 Al 11.878688 11.687849 11.742326
 Al  8.243097  0.854849 11.761196
 Al 11.856884  0.849779 11.741740
 Al  8.219086  4.437907  0.908193
 Al 11.852848  4.471516  0.886820
 Al  8.285389  7.991271  0.889134
 Al 11.860662  8.074503  0.896076
 Al  8.394401 11.802071  0.915749
 Al 11.872421 11.683740  0.903192
 Al  8.298362  0.825471  0.833630
 Al 11.880807  0.860612  0.886097
 Al  8.243657  4.421434  4.513186
 Al 11.835401  4.481247  4.513968
 Al  8.231405  8.112821  4.503612
 Al 11.830643  8.074144  4.505053
 Al  8.299688 11.703096  4.577108
 Al 11.898811 11.678586  4.525162
 Al  8.346711  0.835705  4.621239
 Al 11.841446  0.845611  4.528746
 Al  8.266110  4.459984  8.148780
 Al 11.813325  4.479966  8.146367
 Al  8.214695  8.074935  8.154242
 Al 11.832995  8.083794  8.145129
 Al  8.230025 11.692027  8.156852
 Al 11.838916 11.671167  8.158305
 Al  8.246666  0.844704  8.132547
 Al 11.877376  0.838425  8.155580
 Al  4.766460  2.661695  9.912711
 Al  0.825533  0.866975  8.122801
 Al  2.803022  2.752397  8.015183
 Al  4.666219 13.537735 10.008436
 Al  2.783539 13.410226  8.048624
 Al  4.609415  9.965442 10.043577
 Al  0.990740  9.875852  9.926711
 Al  2.849320  2.692317  4.641011
 Al  0.863744 11.672113  4.649947
 Al  4.725534  9.954908  6.329434
 Al  2.776397  9.664973  4.532233
 Al  5.626443  6.224244  5.448753
 Al  4.713360  7.982442  8.178705
 Al  2.783559  6.274488  4.461341
 Al  0.814209  6.263141  6.337566
 Al  4.545076  0.859409  0.906491
 Al  6.369246  0.849963  2.825625
 Al  2.645462  0.783412 13.531595
 Al  0.911805  2.669917  2.652752
 Al  6.246144 11.795109  2.758646
 Al  0.899545 13.641547  2.658715
 Al  2.888362 11.700115  2.613984
 Al  6.233594  9.774032  0.877893
 Al  4.798886  6.226118  2.685896
 Al  2.699804  6.151966  0.885652
 Al  2.700964  2.714739 11.715456
 Al  6.283943 11.811958 13.497832
 Al  2.768948 11.709137 13.548765
 Al  2.804434  6.178360 11.658107
 Al  2.754040  6.164282  8.284239
 Al  2.763777  8.198060 13.524924
 Ni  8.211020  6.242728 13.546019
 Ni 10.042192  4.456219 13.565048
 Ni 10.041450  6.275832 11.777485
 Ni 11.860701  6.274625 13.560941
 Ni 13.661350  4.474621 13.538441
 Ni 13.641277  6.288715 11.752857
 Ni  8.168623  9.969497 13.672022
 Ni 10.038251  8.084371 13.571341
 Ni 10.045063  9.878314 11.780153
 Ni 11.865303  9.879295 13.571497
 Ni 13.686087  8.078092 13.562769
 Ni 13.674874  9.886979 11.764361
 Ni  8.243456 13.460392 13.551623
 Ni 10.074521 11.691544 13.547239
 Ni 10.046960 13.505593 11.746212
 Ni 11.866175 13.506215 13.532726
 Ni 13.657960 11.687582 13.558051
 Ni 13.672569 13.491905 11.732866
 Ni  8.223441  2.656238 13.574635
 Ni 10.069298  0.847252 13.542487
 Ni 10.033891  2.655963 11.752548
 Ni 11.851801  2.658836 13.532563
 Ni 13.682872  0.853280 13.525006
 Ni 13.667721  2.657125 11.740338
 Ni  8.182844  6.244964  2.743337
 Ni 10.029552  4.463055  2.703204
 Ni 10.041655  6.248091  0.895926
 Ni 11.832618  6.283693  2.680463
 Ni 13.649938  4.488667  2.693777
 Ni 13.678241  6.275089  0.883539
 Ni  8.169598  9.986499  2.594455
 Ni 10.007573  8.083223  2.700181
 Ni 10.054459  9.886629  0.904941
 Ni 11.855886  9.865057  2.707758
 Ni 13.675876  8.076208  2.696916
 Ni 13.685658  9.885187  0.914067
 Ni  8.234855 13.525180  2.739962
 Ni 10.079286 11.700865  2.728420
 Ni 10.106042 13.531954  0.903434
 Ni 11.888488 13.486450  2.715565
 Ni 13.706185 11.677244  2.712759
 Ni 13.652751 13.506228  0.867488
 Ni  8.240433  2.569116  2.718213
 Ni 10.083917  0.832899  2.710332
 Ni 10.053468  2.650547  0.904948
 Ni 11.853117  2.686714  2.708200
 Ni 13.609411  0.883640  2.728538
 Ni 13.624337  2.665492  0.853664
 Ni  8.210054  6.262701  6.295287
 Ni 10.039713  4.471901  6.325520
 Ni 10.014968  6.275031  4.507005
 Ni 11.847120  6.283604  6.328370
 Ni 13.621101  4.440880  6.327508
 Ni 13.614592  6.269762  4.473247
 Ni  8.211397  9.894208  6.336961
 Ni 10.013361  8.079560  6.322099
 Ni 10.028496  9.891762  4.500238
 Ni 11.822526  9.874074  6.323393
 Ni 13.634140  8.103907  6.327813
 Ni 13.664689  9.843371  4.519662
 Ni  8.256094 13.502482  6.346855
 Ni 10.056238 11.683029  6.350667
 Ni 10.075098 13.487129  4.528062
 Ni 11.854467 13.487243  6.344218
 Ni 13.630467 11.660312  6.382129
 Ni 13.666476 13.522700  4.543192
 Ni  8.265639  2.646405  6.330791
 Ni 10.083917  0.837875  6.367342
 Ni 10.066615  2.653355  4.515993
 Ni 11.831451  2.658268  6.334729
 Ni 13.634223  0.868367  6.305009
 Ni 13.636380  2.672185  4.533577
 Ni  8.234994  6.280985  9.983796
 Ni 10.032641  4.466282  9.966792
 Ni 10.030417  6.286330  8.144736
 Ni 11.820616  6.272281  9.970854
 Ni 13.642373  4.476207  9.952463
 Ni 13.611477  6.281135  8.182649
 Ni  8.223214  9.866188  9.974603
 Ni 10.035748  8.083894  9.972593
 Ni 10.023999  9.871706  8.148623
 Ni 11.857102  9.876686  9.954818
 Ni 13.648186  8.068747  9.953679
 Ni 13.648640  9.859490  8.124437
 Ni  8.234895 13.513524  9.936444
 Ni 10.054473 11.680253  9.943056
 Ni 10.054005 13.495199  8.151702
 Ni 11.843843 13.497752  9.951377
 Ni 13.671779 11.702440  9.921317
 Ni 13.641909 13.470226  8.132549
 Ni  8.224889  2.655959  9.953932
 Ni 10.043428  0.848468  9.948662
 Ni 10.047078  2.654361  8.151891
 Ni 11.844242  2.663725  9.957180
 Ni 13.636435  0.837928  9.962014
 Ni 13.602436  2.697197  8.140787
 Ni  1.005896  6.281713 13.526944
 Ni  2.783340  4.434051 13.539226
 Ni  0.948812  4.486639 11.724495
 Ni  4.549653  6.255348 13.557126
 Ni  6.376076  4.434117 13.568427
 Ni  4.592976  8.038388 11.761446
 Ni  4.634955  4.414029 11.754749
 Ni  0.982633  8.053693 11.747767
 Ni  0.957164  9.903568 13.552129
 Ni  4.607205  9.895731 13.504392
 Ni  6.374495  8.043988 13.561098
 Ni  6.425860  9.912419 11.794574
 Ni  2.757740  9.905660 11.722444
 Ni  0.945041 13.474566 13.557495
 Ni  4.540851 11.741131 11.745119
 Ni  2.754148 13.525789 11.701547
 Ni  4.559246 13.593847 13.539784
 Ni  4.611774 11.730236  0.860801
 Ni  6.431155 13.534858 11.757966
 Ni  0.971017  2.670993 13.530468
 Ni  4.566371  0.902665 11.743095
 Ni  0.989509  0.845419 11.689216
 Ni  4.571061  2.612441 13.549065
 Ni  6.409457  0.832481 13.537384
 Ni  6.418890  2.638067 11.795168
 Ni  2.782586  0.890303  9.850148
 Ni  0.956829  6.240953  2.691266
 Ni  2.813285  4.439969  2.718714
 Ni  0.945840  4.440521  0.866353
 Ni  6.431149  4.377178  2.718230
 Ni  6.408794  6.245305  0.857203
 Ni  4.599223  4.423600  0.888417
 Ni  1.050603  9.908406  2.744605
 Ni  2.807933  7.982616  2.666701
 Ni  2.804680  9.886297  0.900534
 Ni  1.011737  8.082424  0.896819
 Ni  4.579483  9.830908  2.709752
 Ni  6.444216  8.083605  2.715632
 Ni  4.518127  8.001177  0.875605
 Ni  0.932467  0.889342  0.871849
 Ni  0.980446 11.688476  0.920287
 Ni  4.553021 13.584751  2.735305
 Ni  6.401483 13.547633  0.915279
 Ni  2.755879 13.536541  0.911128
 Ni  2.751115  0.927319  2.766199
 Ni  2.781338  2.662231  0.865647
 Ni  4.610465  2.662415  2.711915
 Ni  6.400881  2.575037  0.910958
 Ni  0.963997  4.462643  4.509154
 Ni  6.452791  4.394375  6.347489
 Ni  4.651053  4.478393  4.522593
 Ni  1.010882  9.806434  6.344707
 Ni  0.959747  8.014424  4.509384
 Ni  2.860865  7.909460  6.421479
 Ni  6.411026  8.117932  6.338379
 Ni  6.443120  9.916013  4.469372
 Ni  4.652563  8.040642  4.496807
 Ni  0.959579 13.515358  6.345852
 Ni  2.781100 11.614689  6.282930
 Ni  2.695361 13.476155  4.471490
 Ni  4.593551 13.480818  6.293116
 Ni  6.428149 11.728161  6.337523
 Ni  6.408675 13.505370  4.559291
 Ni  4.514228 11.685269  4.537535
 Ni  0.955716  2.707508  6.342654
 Ni  2.759771  0.828671  6.387711
 Ni  0.978593  0.908910  4.580417
 Ni  4.651205  2.669721  6.340001
 Ni  6.406566  0.840201  6.328872
 Ni  6.417261  2.634496  4.541009
 Ni  4.564115  0.835880  4.578660
 Ni  0.942072  6.273217  9.959441
 Ni  2.817854  4.354481  9.919247
 Ni  2.807507  4.643990  6.319198
 Ni  0.936066  4.475434  8.143884
 Ni  4.651269  6.211880  9.935812
 Ni  6.446314  4.490188  9.945069
 Ni  6.467157  6.243725  8.125571
 Ni  4.668362  4.471560  8.108034
 Ni  0.975072 11.714587 11.731488
 Ni  2.832089  8.077511  9.921626
 Ni  2.887315  9.860161  8.099204
 Ni  0.991163  8.050158  8.143529
 Ni  6.388795  6.250447 11.773339
 Ni  6.394242  9.889093  8.195854
 Ni  6.403391  8.058469  9.993309
 Ni  0.992105 13.504870  9.891421
 Ni  2.773542 11.727655  9.919813
 Ni  0.986820 11.643324  8.092067
 Ni  6.428144 11.706115  9.968788
 Ni  6.416199 13.504107  8.110467
 Ni  4.638225 11.741910  8.147233
 Ni  0.942007  2.661178  9.899877
 Ni  4.631899  0.828950  8.106290
 Ni  6.444163  0.842649  9.932143
 Ni  6.467047  2.642182  8.107086
%endblock positions_abs_intermediate 
     kpoint_mp_grid 1 1 1 
     fix_com : false