#######################################################
#CASTEP cell file: /home/u2093113/Documents/kART/CASTEP/castep.cell
#Created using the Atomic Simulation Environment (ASE)#
#######################################################

%BLOCK LATTICE_CART
14.464828  0.000000  0.000000
 0.000000 14.464828  0.000000
 0.000000  0.000000 14.464828
%ENDBLOCK LATTICE_CART

%BLOCK POSITIONS_ABS
Al 13.593022  0.906737  9.979244
Al 13.601470  4.525941  9.970436
Al 13.552812  8.031687  9.901887
Al 13.440243 11.819450 10.066135
Al 13.518260  0.904568 13.519628
Al 13.514115  4.539702 13.538455
Al 13.751079  8.120520 13.648636
Al 13.654297 11.732536 13.514599
Al 13.474728  0.786621  2.834472
Al 13.411293  4.530772  2.829936
Al 13.566835  8.247177  2.784936
Al 13.594688 11.759359  2.726290
Al 13.634983  0.862562  6.346180
Al 13.604110  4.503121  6.342767
Al 13.600344  8.192454  6.357901
Al 13.419320 11.766319  6.362093
Al 10.120890 13.594193  8.144497
Al  6.177423 11.745009  6.344117
Al  8.153252 13.639186  6.283100
Al  2.549616 13.457558 11.681300
Al  2.956267 11.738450  6.372594
Al  2.549596  8.264979  6.373728
Al  4.599118 13.529381  9.890648
Al  0.992138 11.851034  8.195915
Al 10.048595  9.959171  8.236719
Al  8.175024  9.869210  6.270258
Al  4.549572  6.455492 10.006733
Al  2.583544  6.259923  8.153102
Al 10.117128  2.604489  8.138317
Al  6.461209  6.299316  8.085541
Al  4.519014  2.761219  6.548177
Al  8.235816 13.601566  2.870795
Al  1.033096 11.754254  4.506032
Al  6.316035  8.167371  2.794078
Al  4.512179  8.115213  4.640769
Al 10.096828  6.306944  4.662372
Al  8.178109  6.240171  2.863621
Al  4.523860  4.645771  4.541368
Al  1.106270  6.412844  2.864022
Al 10.092471  2.702607  4.553292
Al  9.982971  6.385125  8.087132
Al  7.999317  4.576680  0.851538
Al  7.976560  2.637773  2.798691
Al  4.536646  0.842497  4.508515
Al  1.110543  2.696391  2.961545
Al  9.904569 11.768254 13.571866
Al 11.670048 11.758769  1.007526
Al  8.026638 11.696425 11.725606
Al  6.370930 13.542773  0.957546
Al  4.544543 13.440802 13.530556
Al 11.566313  8.165911  0.931387
Al  6.412076 10.150589  0.979117
Al  8.283739  8.136913  0.837989
Al  4.572788  9.987206 13.614079
Al 10.077848  4.644618 13.443345
Al  2.764019  4.416783 13.554670
Al  4.651353  6.488389 13.670711
Al  0.988481  4.505851  0.952880
Al 10.142862  2.572669  0.942014
Al  8.023527  2.553563 13.442810
Al  2.764003  1.051836 13.536301
Al  0.985248  0.846719  0.972165
Al  8.075153 13.640078  9.897670
Al 11.640338  8.146811 11.796992
Al  8.123561  8.168316 11.737641
Al  4.611277  9.846732  9.803844
Al  2.689656  9.945811 11.841561
Al  0.950388  9.865491  9.945080
Al  8.051210  2.621497 10.059279
Al  8.000558  2.734134  6.377059
Al 10.012529  4.552710 10.130322
Al  4.640543  4.377900 11.683561
Ni 13.593188  2.718856 11.773597
Ni 13.591405  6.404244 11.809423
Ni 13.572083  9.824979 11.782098
Ni 13.593858 13.576831 11.806264
Ni 11.813991  2.677574  2.747370
Ni 13.653041  6.299385  1.031628
Ni 13.569550  9.962626  0.936411
Ni 13.575754 13.518399  0.922524
Ni 13.614887  2.676256  4.520239
Ni 13.567210  6.372431  4.474793
Ni 13.582667 10.042991  4.539835
Ni 13.604595 13.472908  4.551177
Ni 13.589128  2.700461  8.174392
Ni 13.602079  6.295506  8.158544
Ni 13.594262 10.040741  8.241421
Ni 13.555991 13.516285  8.147298
Ni  0.945470  0.928392 11.767988
Ni  0.940261  2.713098  9.981245
Ni  2.731057  2.715921 11.716243
Ni  4.467935  0.814736 11.772183
Ni  4.495319  2.687792  9.911667
Ni  2.723603  0.878332  9.960240
Ni  6.280932  2.604989 11.751438
Ni  8.157720  0.821486 11.762522
Ni  6.285087  0.901589  9.930492
Ni  9.964542  2.694073 11.815723
Ni 11.728363  0.897674 11.778704
Ni  9.932365  6.381356 11.780225
Ni  9.972088  0.891263  9.984230
Ni  0.948067  4.524035 11.775664
Ni  0.939307  6.314876 10.028934
Ni  2.828099  6.290242 11.858594
Ni  6.348261  4.558387  9.935445
Ni  2.748583  4.550038  9.989940
Ni  6.320425  6.326719 11.769403
Ni  9.907376  8.167821 13.546605
Ni 11.826510  4.561008 11.758306
Ni 11.751681  6.343114  9.964487
Ni  8.182685  6.300414  9.962168
Ni  0.983357  8.103581 11.769454
Ni  4.545961  8.212292 11.780988
Ni  2.755223  8.124091  9.982573
Ni  6.335960  9.922134 11.736213
Ni  9.939203  8.138332  9.948690
Ni  8.158966  9.946387  9.902509
Ni  9.938083 10.007764 11.747960
Ni 11.818903  6.435110 13.627391
Ni 11.784601  9.926154 10.013765
Ni  0.889926 11.670390 11.711159
Ni  0.874532 13.563456  9.932152
Ni  2.773202 11.669489  9.967836
Ni  4.570677 11.720208 11.727483
Ni  2.701398  9.944542  8.152487
Ni  4.559992 11.712246  8.197071
Ni  6.354304 13.555921 11.729024
Ni  9.923667 11.814529  9.976795
Ni  6.396846 11.729454  9.881318
Ni  9.942120 13.527277 11.775018
Ni 11.744276 11.731207 11.796103
Ni 11.756648 13.581120 10.030224
Ni  8.168632 11.784929  8.064864
Ni  0.891021  2.716672 13.598113
Ni  2.733925  2.710261  0.973851
Ni  4.546717  0.862103  0.912304
Ni  4.576563  2.703378 13.592236
Ni  6.347653  2.695706  0.896148
Ni  8.178267  0.922742  0.916829
Ni  6.280682  0.808223 13.569738
Ni 11.826956  0.832274  0.930020
Ni 11.787745  2.705973 13.567033
Ni  9.969580  0.868082 13.577119
Ni  0.974960  6.260047 13.619609
Ni  2.768297  6.332274  0.924537
Ni  4.562352  4.544182  0.912493
Ni  6.406208  6.423469  1.018997
Ni  6.297446  4.529128 13.559456
Ni  8.106355  6.325498 13.549552
Ni  8.088447  4.511479 11.778923
Ni  9.902427  6.247536  0.920548
Ni 13.671724  2.690141  1.051385
Ni 11.761254  4.534769  0.931009
Ni  0.981627  8.132467  0.985638
Ni  0.931343  9.948242 13.640229
Ni  2.720696  9.958413  0.949688
Ni  4.559093  8.255101  0.971791
Ni  2.742115  8.153355 13.612801
Ni  6.362786 11.775275 13.583514
Ni  6.381746  8.232787 13.627110
Ni  9.913636 10.013908  0.959393
Ni 11.744712  9.961904 13.606295
Ni  8.163797  9.993065 13.576106
Ni  0.969710 11.779659  0.914211
Ni  0.948292 13.620035 13.607473
Ni  2.760265 13.585034  0.900503
Ni  4.519365 11.759495  0.953772
Ni  2.721633 11.751701 13.577407
Ni  8.181621 11.845767  0.999802
Ni  8.170322 13.567194 13.564577
Ni  9.976703 13.603776  0.933567
Ni 11.757258 13.495567 13.595729
Ni  0.972569  0.834528  4.554050
Ni  2.868372  2.714712  4.625892
Ni  2.735643  0.905074  6.368358
Ni  4.546199  2.713641  2.690700
Ni  2.784962  0.878508  2.729098
Ni  6.316206  0.859873  2.713619
Ni 11.767558  0.868238  4.584972
Ni  9.971237  0.935330  2.786121
Ni  0.952285  4.547507  4.544603
Ni  2.747146  6.384687  4.651420
Ni  4.533972  6.386409  2.740506
Ni  2.776045  4.546751  2.730823
Ni  6.343274  6.344170  4.575250
Ni  6.334346  4.529160  2.729450
Ni  8.145772  4.448680  4.574363
Ni 11.771101  4.512118  4.596027
Ni 11.714866  6.366826  2.701467
Ni  9.895766  4.421327  2.671127
Ni  0.902316  8.238239  4.532122
Ni  0.959446  9.991366  2.720409
Ni  2.748204  9.974991  4.547288
Ni  4.554986  9.981690  2.775208
Ni  2.797206  8.200971  2.747978
Ni  6.319135  9.941479  4.569927
Ni  8.170673  8.086500  4.545279
Ni  8.115199  9.920647  2.740523
Ni  9.970509  9.935617  4.521429
Ni 11.770224  8.170280  4.555916
Ni 11.728687  9.946138  2.745436
Ni  9.893045  8.113483  2.791795
Ni  0.957191 13.550058  2.726329
Ni  2.742004 13.537433  4.541534
Ni  4.537543 11.764593  4.500316
Ni  4.518813 13.522538  2.732837
Ni  2.755536 11.769068  2.693314
Ni  6.323275 13.571727  4.575718
Ni  8.132512 11.731925  4.629297
Ni  6.372405 11.805063  2.818564
Ni  9.988178 13.568823  4.573692
Ni 11.721311 11.748493  4.529743
Ni 11.724825 13.522734  2.760633
Ni  9.906631 11.747930  2.806053
Ni  0.936301  0.880156  8.162148
Ni  0.960933  2.692097  6.331974
Ni  2.679512  2.720385  8.185678
Ni  4.522319  0.896956  8.171650
Ni  6.178885  2.730314  4.585760
Ni  2.739956 13.575364  8.165973
Ni  6.324136  2.749398  8.208908
Ni  8.160819  0.924041  8.142826
Ni  8.115216  0.987596  4.585484
Ni  6.292851  0.935392  6.384549
Ni  9.979375  4.428909  6.367605
Ni 11.837762  0.893492  8.162836
Ni 11.854129  2.691480  6.361247
Ni  9.977232  0.923111  6.337726
Ni  0.905773  4.480992  8.156221
Ni  0.895337  6.347700  6.309416
Ni  4.477976  7.213068  7.266789
Ni  2.728005  4.517736  6.361734
Ni  6.384022  8.117712  9.900128
Ni  8.291558  4.410046  8.238513
Ni  8.195058  6.297455  6.323685
Ni  6.316930  4.558636  6.364908
Ni 11.777147  2.707689 10.011388
Ni 11.846371  6.332521  6.386043
Ni 11.729096  4.516770  8.178820
Ni  0.899677  8.139919  8.180768
Ni  0.889297 10.133085  6.378795
Ni  4.540175  9.809121  6.422208
Ni  4.520525  4.649938  8.229699
Ni  6.409498  9.913202  8.092939
Ni  8.185526  8.153546  8.139002
Ni  6.390710  8.081822  6.355195
Ni 11.803995  8.145332  8.145544
Ni 11.763774  9.939996  6.329031
Ni 10.009817  8.180715  6.348965
Ni  0.975109 13.449352  6.348116
Ni  4.511721 13.618593  6.386047
Ni  6.336412 13.572870  8.086160
Ni  9.987114 11.739619  6.342630
Ni 11.749275 11.751960  8.186643
Ni 11.777260 13.576805  6.313935
%ENDBLOCK POSITIONS_ABS

