#######################################################
#CASTEP cell file: /home/u2093113/Documents/kART/CASTEP/castep.cell
#Created using the Atomic Simulation Environment (ASE)#
#######################################################

%BLOCK LATTICE_CART
14.464828  0.000000  0.000000
 0.000000 14.464828  0.000000
 0.000000  0.000000 14.464828
%ENDBLOCK LATTICE_CART

%BLOCK POSITIONS_ABS
Al 13.590653  0.905486  9.979721
Al 13.600509  4.527188  9.971478
Al 13.550665  8.030019  9.902239
Al 13.440117 11.817901 10.064215
Al 13.516043  0.902956 13.517164
Al 13.512458  4.539040 13.534506
Al 13.750132  8.119996 13.646020
Al 13.651301 11.730725 13.514467
Al 13.471004  0.786836  2.833027
Al 13.407676  4.530562  2.826973
Al 13.562374  8.240489  2.784564
Al 13.590562 11.758766  2.726253
Al 13.632818  0.864416  6.346686
Al 13.601902  4.502018  6.346399
Al 13.599039  8.188708  6.358057
Al 13.415336 11.766171  6.360684
Al 10.118806 13.592752  8.142326
Al  6.178416 11.749000  6.338959
Al  8.151907 13.639824  6.283707
Al  2.547897 13.455903 11.682956
Al  2.945118 11.744808  6.367415
Al  2.531133  8.276140  6.363048
Al  4.595704 13.530102  9.890134
Al  0.991696 11.848579  8.195060
Al 10.042796  9.955894  8.234702
Al  8.166170  9.864209  6.272082
Al  4.545363  6.443452 10.015892
Al  2.601909  6.265987  8.138426
Al 10.112458  2.604249  8.139718
Al  6.438929  6.296913  8.074129
Al  4.516876  2.764369  6.545354
Al  8.235221 13.601268  2.872451
Al  1.028203 11.753997  4.502578
Al  6.309633  8.164418  2.796082
Al  4.514055  8.085305  4.656412
Al 10.092663  6.304066  4.664425
Al  8.180229  6.237128  2.860673
Al  4.521562  4.646922  4.546849
Al  1.106188  6.407501  2.869826
Al 10.091853  2.701479  4.553896
Al  9.975859  6.384115  8.087272
Al  7.997366  4.572726  0.850191
Al  7.978102  2.635324  2.796033
Al  4.533226  0.845408  4.506696
Al  1.102845  2.696855  2.959162
Al  9.902431 11.766138 13.571254
Al 11.664891 11.757017  1.006253
Al  8.022143 11.695008 11.723344
Al  6.368361 13.541330  0.958799
Al  4.542562 13.440389 13.533943
Al 11.563899  8.164301  0.928815
Al  6.408492 10.148459  0.982249
Al  8.281640  8.136549  0.839202
Al  4.568910  9.987661 13.619628
Al 10.073326  4.644681 13.440005
Al  2.761094  4.416272 13.555823
Al  4.650095  6.485315 13.674796
Al  0.985013  4.506818  0.951404
Al 10.140963  2.570696  0.938483
Al  8.020894  2.550579 13.442429
Al  2.761425  1.050562 13.537511
Al  0.981521  0.847004  0.969021
Al  8.071196 13.635933  9.894609
Al 11.635140  8.146812 11.793155
Al  8.115943  8.166752 11.734476
Al  4.609926  9.868299  9.825260
Al  2.681979  9.945457 11.844367
Al  0.954709  9.865059  9.943019
Al  8.046999  2.620398 10.058188
Al  7.999000  2.733160  6.376029
Al 10.006451  4.553213 10.130230
Al  4.640128  4.373247 11.686110
Ni 13.589574  2.718563 11.770680
Ni 13.589850  6.405065 11.805839
Ni 13.569742  9.824665 11.780126
Ni 13.591011 13.574548 11.804648
Ni 11.810780  2.677472  2.745820
Ni 13.646903  6.298780  1.028746
Ni 13.563946  9.959122  0.936140
Ni 13.570767 13.516865  0.920863
Ni 13.609563  2.677223  4.519527
Ni 13.563282  6.368554  4.478756
Ni 13.578268 10.039007  4.538587
Ni 13.600443 13.474520  4.550062
Ni 13.586834  2.703849  8.177836
Ni 13.599671  6.293196  8.159939
Ni 13.592138 10.039290  8.240070
Ni 13.554580 13.514596  8.147164
Ni  0.944607  0.927318 11.767615
Ni  0.939537  2.713578  9.981680
Ni  2.729373  2.714753 11.716583
Ni  4.465185  0.814788 11.772503
Ni  4.492678  2.689257  9.908185
Ni  2.720762  0.876511  9.960282
Ni  6.277255  2.601086 11.751522
Ni  8.154454  0.817994 11.760541
Ni  6.280745  0.898923  9.929109
Ni  9.959083  2.692339 11.812136
Ni 11.724387  0.894879 11.775646
Ni  9.924667  6.382498 11.777866
Ni  9.969258  0.888237  9.982851
Ni  0.946742  4.523608 11.773544
Ni  0.943412  6.311734 10.022653
Ni  2.826767  6.288014 11.859117
Ni  6.338991  4.557504  9.932023
Ni  2.750171  4.549502  9.986665
Ni  6.316972  6.324786 11.770026
Ni  9.901986  8.166810 13.544296
Ni 11.822731  4.561200 11.756208
Ni 11.746769  6.345526  9.963503
Ni  8.171108  6.298489  9.957049
Ni  0.986277  8.101302 11.761693
Ni  4.541991  8.209835 11.796405
Ni  2.761514  8.135205  9.981436
Ni  6.332286  9.923127 11.742997
Ni  9.932028  8.137104  9.946561
Ni  8.146603  9.944234  9.896936
Ni  9.931853 10.006106 11.744879
Ni 11.815169  6.435015 13.623336
Ni 11.779517  9.924859 10.010806
Ni  0.885735 11.669707 11.710534
Ni  0.872773 13.562136  9.931046
Ni  2.770491 11.671265  9.967247
Ni  4.566653 11.722332 11.731541
Ni  2.712488  9.941202  8.147502
Ni  4.555117 11.721991  8.189388
Ni  6.351483 13.553808 11.729004
Ni  9.916399 11.811355  9.971077
Ni  6.389984 11.729733  9.878083
Ni  9.937974 13.523344 11.772806
Ni 11.741036 11.728469 11.793628
Ni 11.753307 13.578454 10.028832
Ni  8.158012 11.773537  8.058715
Ni  0.887413  2.715831 13.597067
Ni  2.729087  2.711126  0.973422
Ni  4.544820  0.862825  0.912689
Ni  4.575019  2.701652 13.593687
Ni  6.346107  2.692148  0.895376
Ni  8.176803  0.919979  0.915649
Ni  6.279007  0.805729 13.571116
Ni 11.824446  0.830759  0.928332
Ni 11.783919  2.704760 13.562683
Ni  9.966857  0.864987 13.574210
Ni  0.970611  6.259832 13.618564
Ni  2.765709  6.330324  0.927065
Ni  4.560423  4.542566  0.914626
Ni  6.404012  6.420720  1.021315
Ni  6.295228  4.526435 13.560709
Ni  8.102260  6.325113 13.549471
Ni  8.081276  4.510412 11.777387
Ni  9.900146  6.246475  0.917789
Ni 13.666699  2.690275  1.048914
Ni 11.757698  4.535023  0.926386
Ni  0.977623  8.128338  0.988425
Ni  0.926622  9.947016 13.642471
Ni  2.716873  9.954586  0.952913
Ni  4.555495  8.251317  0.974687
Ni  2.735472  8.149519 13.616528
Ni  6.358803 11.775414 13.584779
Ni  6.380461  8.230969 13.633189
Ni  9.910547 10.012138  0.959593
Ni 11.740307  9.961173 13.604811
Ni  8.160689  9.992142 13.577165
Ni  0.965885 11.778906  0.915095
Ni  0.944562 13.618998 13.608052
Ni  2.756859 13.584173  0.902310
Ni  4.515827 11.759190  0.957401
Ni  2.718085 11.751490 13.581388
Ni  8.179744 11.843591  1.001513
Ni  8.167707 13.565552 13.564330
Ni  9.974238 13.601252  0.933083
Ni 11.754099 13.492208 13.593844
Ni  0.967177  0.836740  4.552289
Ni  2.860764  2.715889  4.624635
Ni  2.731410  0.906360  6.366892
Ni  4.543443  2.713509  2.690638
Ni  2.780956  0.879457  2.727883
Ni  6.314160  0.859170  2.713825
Ni 11.764663  0.869170  4.585853
Ni  9.971003  0.933524  2.785522
Ni  0.946386  4.542984  4.546639
Ni  2.748508  6.384935  4.664580
Ni  4.532154  6.380976  2.753034
Ni  2.773188  4.544827  2.735156
Ni  6.352691  6.331500  4.567500
Ni  6.334419  4.523588  2.727123
Ni  8.148994  4.443824  4.569759
Ni 11.768571  4.510966  4.597818
Ni 11.709969  6.364572  2.701539
Ni  9.896314  4.418227  2.667534
Ni  0.896139  8.233815  4.528496
Ni  0.952633  9.988356  2.718935
Ni  2.740920  9.973258  4.537902
Ni  4.549920  9.977364  2.778125
Ni  2.795331  8.195819  2.750993
Ni  6.317921  9.937135  4.565576
Ni  8.169133  8.084518  4.543377
Ni  8.113505  9.918918  2.741404
Ni  9.967013  9.932157  4.523779
Ni 11.766459  8.166878  4.557140
Ni 11.724008  9.943367  2.747134
Ni  9.892794  8.111242  2.791869
Ni  0.952451 13.551387  2.725780
Ni  2.737610 13.539945  4.538658
Ni  4.532803 11.764894  4.499575
Ni  4.515323 13.524352  2.733757
Ni  2.751633 11.769206  2.691773
Ni  6.320996 13.573613  4.575193
Ni  8.131611 11.731052  4.630114
Ni  6.370363 11.803153  2.821151
Ni  9.986381 13.569026  4.574990
Ni 11.718582 11.746686  4.529745
Ni 11.721535 13.522112  2.760335
Ni  9.904972 11.746695  2.807391
Ni  0.931849  0.878347  8.163562
Ni  0.953336  2.688620  6.332671
Ni  2.676414  2.718750  8.183029
Ni  4.519218  0.896708  8.169072
Ni  6.181139  2.730017  4.582365
Ni  2.736452 13.577486  8.164042
Ni  6.320262  2.749089  8.207231
Ni  8.156344  0.924710  8.141493
Ni  8.115349  0.987317  4.585072
Ni  6.289431  0.935996  6.382537
Ni  9.976481  4.427645  6.369969
Ni 11.836824  0.893566  8.163006
Ni 11.851962  2.692426  6.364033
Ni  9.975649  0.922525  6.338016
Ni  0.911307  4.484189  8.156498
Ni  0.902218  6.345191  6.312587
Ni  4.496097  7.974724  8.036122
Ni  2.719534  4.511459  6.357214
Ni  6.374240  8.121985  9.901981
Ni  8.283534  4.409001  8.238676
Ni  8.185106  6.294403  6.321665
Ni  6.323428  4.553189  6.357777
Ni 11.773004  2.706336 10.012122
Ni 11.842440  6.330059  6.388269
Ni 11.724455  4.516051  8.181419
Ni  0.892980  8.137693  8.179981
Ni  0.880895 10.136954  6.376937
Ni  4.532841  9.834450  6.378287
Ni  4.515768  4.655703  8.208877
Ni  6.383214  9.905153  8.083473
Ni  8.177408  8.149464  8.135653
Ni  6.383101  8.076275  6.340015
Ni 11.802082  8.143982  8.145813
Ni 11.762232  9.937316  6.329972
Ni 10.005380  8.178660  6.348826
Ni  0.971177 13.449727  6.345869
Ni  4.507829 13.620686  6.383204
Ni  6.332843 13.573683  8.082728
Ni  9.986248 11.737492  6.342215
Ni 11.746427 11.749039  8.185157
Ni 11.775236 13.576576  6.314158
%ENDBLOCK POSITIONS_ABS

