#######################################################
#CASTEP cell file: /home/u2093113/Documents/kART/CASTEP/castep.cell
#Created using the Atomic Simulation Environment (ASE)#
#######################################################

%BLOCK LATTICE_CART
14.464828  0.000000  0.000000
 0.000000 14.464828  0.000000
 0.000000  0.000000 14.464828
%ENDBLOCK LATTICE_CART

%BLOCK POSITIONS_ABS
Al 13.595392  0.907987  9.978766
Al 13.602432  4.524694  9.969395
Al 13.554958  8.033354  9.901535
Al 13.440369 11.820999 10.068055
Al 13.520477  0.906180 13.522092
Al 13.515772  4.540364 13.542404
Al 13.752027  8.121044 13.651252
Al 13.657292 11.734346 13.514732
Al 13.478452  0.786405  2.835918
Al 13.414910  4.530983  2.832899
Al 13.571296  8.253866  2.785308
Al 13.598813 11.759952  2.726327
Al 13.637149  0.860708  6.345674
Al 13.606317  4.504224  6.339134
Al 13.601649  8.196201  6.357745
Al 13.423303 11.766467  6.363502
Al 10.122973 13.595634  8.146667
Al  6.176430 11.741018  6.349275
Al  8.154596 13.638548  6.282493
Al  2.551335 13.459213 11.679644
Al  2.967415 11.732093  6.377772
Al  2.568058  8.253817  6.384407
Al  4.602532 13.528660  9.891163
Al  0.992581 11.853490  8.196770
Al 10.054394  9.962447  8.238736
Al  8.183877  9.874210  6.268434
Al  4.553781  6.467532  9.997574
Al  2.565179  6.253860  8.167778
Al 10.121797  2.604728  8.136915
Al  6.483490  6.301719  8.096953
Al  4.521153  2.758069  6.550999
Al  8.236412 13.601863  2.869139
Al  1.037990 11.754511  4.509486
Al  6.322437  8.170325  2.792073
Al  4.510304  8.145121  4.625125
Al 10.100992  6.309823  4.660320
Al  8.175988  6.243214  2.866570
Al  4.526158  4.644619  4.535887
Al  1.106352  6.418188  2.858218
Al 10.093090  2.703734  4.552689
Al  9.990083  6.386136  8.086992
Al  8.001268  4.580633  0.852885
Al  7.975019  2.640222  2.801348
Al  4.540067  0.839585  4.510333
Al  1.118242  2.695928  2.963928
Al  9.906707 11.770371 13.572477
Al 11.675205 11.760522  1.008799
Al  8.031133 11.697843 11.727869
Al  6.373499 13.544215  0.956292
Al  4.546524 13.441216 13.527168
Al 11.568728  8.167521  0.933958
Al  6.415661 10.152719  0.975985
Al  8.285839  8.137277  0.836776
Al  4.576667  9.986751 13.608530
Al 10.082370  4.644554 13.446685
Al  2.766944  4.417295 13.553517
Al  4.652611  6.491462 13.666626
Al  0.991949  4.504883  0.954356
Al 10.144762  2.574642  0.945546
Al  8.026160  2.556548 13.443192
Al  2.766580  1.053109 13.535091
Al  0.988974  0.846434  0.975309
Al  8.079110 13.644223  9.900730
Al 11.645536  8.146810 11.800829
Al  8.131179  8.169880 11.740806
Al  4.612629  9.825166  9.782428
Al  2.697333  9.946165 11.838754
Al  0.946067  9.865923  9.947140
Al  8.055421  2.622597 10.060370
Al  8.002116  2.735109  6.378090
Al 10.018607  4.552207 10.130414
Al  4.640958  4.382553 11.681012
Ni 13.596801  2.719149 11.776515
Ni 13.592960  6.403423 11.813006
Ni 13.574423  9.825294 11.784071
Ni 13.596705 13.579115 11.807881
Ni 11.817202  2.677676  2.748920
Ni 13.659178  6.299990  1.034511
Ni 13.575155  9.966131  0.936681
Ni 13.580740 13.519933  0.924184
Ni 13.620211  2.675288  4.520952
Ni 13.571139  6.376309  4.470831
Ni 13.587066 10.046976  4.541083
Ni 13.608748 13.471296  4.552292
Ni 13.591423  2.697073  8.170948
Ni 13.604487  6.297815  8.157149
Ni 13.596386 10.042192  8.242771
Ni 13.557402 13.517973  8.147431
Ni  0.946333  0.929467 11.768360
Ni  0.940984  2.712618  9.980810
Ni  2.732740  2.717088 11.715903
Ni  4.470685  0.814683 11.771864
Ni  4.497960  2.686327  9.915148
Ni  2.726445  0.880153  9.960198
Ni  6.284609  2.608891 11.751355
Ni  8.160986  0.824978 11.764503
Ni  6.289429  0.904254  9.931875
Ni  9.970000  2.695807 11.819310
Ni 11.732340  0.900470 11.781761
Ni  9.940063  6.380213 11.782584
Ni  9.974918  0.894289  9.985609
Ni  0.949392  4.524461 11.777785
Ni  0.935202  6.318018 10.035216
Ni  2.829432  6.292470 11.858071
Ni  6.357531  4.559270  9.938867
Ni  2.746995  4.550574  9.993216
Ni  6.323877  6.328653 11.768781
Ni  9.912766  8.168832 13.548914
Ni 11.830289  4.560816 11.760403
Ni 11.756592  6.340702  9.965470
Ni  8.194262  6.302340  9.967287
Ni  0.980437  8.105859 11.777215
Ni  4.549930  8.214749 11.765571
Ni  2.748932  8.112977  9.983711
Ni  6.339633  9.921142 11.729430
Ni  9.946378  8.139559  9.950819
Ni  8.171329  9.948541  9.908081
Ni  9.944312 10.009422 11.751041
Ni 11.822636  6.435205 13.631445
Ni 11.789686  9.927449 10.016724
Ni  0.894116 11.671074 11.711783
Ni  0.876292 13.564775  9.933258
Ni  2.775914 11.667713  9.968425
Ni  4.574701 11.718084 11.723425
Ni  2.690308  9.947883  8.157472
Ni  4.564868 11.702502  8.204755
Ni  6.357124 13.558035 11.729045
Ni  9.930934 11.817703  9.982513
Ni  6.403707 11.729174  9.884553
Ni  9.946266 13.531210 11.777231
Ni 11.747517 11.733945 11.798578
Ni 11.759989 13.583786 10.031616
Ni  8.179252 11.796321  8.071012
Ni  0.894629  2.717512 13.599159
Ni  2.738762  2.709397  0.974281
Ni  4.548614  0.861380  0.911919
Ni  4.578107  2.705104 13.590785
Ni  6.349198  2.699264  0.896921
Ni  8.179732  0.925505  0.918008
Ni  6.282357  0.810718 13.568360
Ni 11.829465  0.833789  0.931708
Ni 11.791571  2.707187 13.571383
Ni  9.972302  0.871176 13.580027
Ni  0.979309  6.260263 13.620654
Ni  2.770886  6.334224  0.922010
Ni  4.564282  4.545799  0.910360
Ni  6.408404  6.426218  1.016679
Ni  6.299664  4.531822 13.558202
Ni  8.110451  6.325883 13.549632
Ni  8.095617  4.512546 11.780459
Ni  9.904708  6.248598  0.923307
Ni 13.676749  2.690007  1.053856
Ni 11.764809  4.534516  0.935632
Ni  0.985630  8.136596  0.982851
Ni  0.936064  9.949468 13.637987
Ni  2.724518  9.962240  0.946462
Ni  4.562691  8.258885  0.968896
Ni  2.748758  8.157190 13.609074
Ni  6.366769 11.775136 13.582249
Ni  6.383032  8.234604 13.621031
Ni  9.916724 10.015677  0.959194
Ni 11.749117  9.962634 13.607779
Ni  8.166906  9.993987 13.575047
Ni  0.973536 11.780413  0.913327
Ni  0.952022 13.621072 13.606894
Ni  2.763671 13.585896  0.898696
Ni  4.522902 11.759799  0.950143
Ni  2.725182 11.751911 13.573426
Ni  8.183497 11.847943  0.998090
Ni  8.172936 13.568836 13.564823
Ni  9.979169 13.606300  0.934052
Ni 11.760416 13.498925 13.597613
Ni  0.977961  0.832317  4.555811
Ni  2.875980  2.713535  4.627149
Ni  2.739876  0.903787  6.369824
Ni  4.548955  2.713772  2.690762
Ni  2.788967  0.877558  2.730312
Ni  6.318252  0.860576  2.713413
Ni 11.770453  0.867306  4.584092
Ni  9.971472  0.937136  2.786719
Ni  0.958183  4.552029  4.542566
Ni  2.745783  6.384440  4.638260
Ni  4.535790  6.391843  2.727977
Ni  2.778902  4.548674  2.726490
Ni  6.333857  6.356840  4.583000
Ni  6.334273  4.534732  2.731777
Ni  8.142549  4.453536  4.578967
Ni 11.773630  4.513271  4.594237
Ni 11.719763  6.369081  2.701396
Ni  9.895219  4.424427  2.674721
Ni  0.908493  8.242663  4.535749
Ni  0.966258  9.994377  2.721883
Ni  2.755489  9.976723  4.556673
Ni  4.560052  9.986016  2.772292
Ni  2.799080  8.206122  2.744963
Ni  6.320349  9.945823  4.574278
Ni  8.172213  8.088482  4.547182
Ni  8.116893  9.922377  2.739643
Ni  9.974006  9.939076  4.519079
Ni 11.773988  8.173683  4.554692
Ni 11.733365  9.948908  2.743738
Ni  9.893296  8.115724  2.791722
Ni  0.961931 13.548730  2.726879
Ni  2.746399 13.534921  4.544411
Ni  4.542283 11.764291  4.501057
Ni  4.522303 13.520723  2.731917
Ni  2.759440 11.768929  2.694856
Ni  6.325555 13.569842  4.576242
Ni  8.133413 11.732798  4.628480
Ni  6.374448 11.806973  2.815978
Ni  9.989975 13.568619  4.572394
Ni 11.724039 11.750300  4.529741
Ni 11.728114 13.523356  2.760932
Ni  9.908291 11.749164  2.804715
Ni  0.940752  0.881965  8.160734
Ni  0.968530  2.695574  6.331278
Ni  2.682610  2.722020  8.188326
Ni  4.525420  0.897203  8.174227
Ni  6.176631  2.730612  4.589156
Ni  2.743460 13.573242  8.167903
Ni  6.328009  2.749706  8.210585
Ni  8.165295  0.923371  8.144158
Ni  8.115083  0.987876  4.585895
Ni  6.296272  0.934788  6.386561
Ni  9.982268  4.430174  6.365242
Ni 11.838700  0.893417  8.162667
Ni 11.856297  2.690535  6.358460
Ni  9.978815  0.923697  6.337436
Ni  0.900240  4.477796  8.155944
Ni  0.888456  6.350209  6.306244
Ni  4.459855  6.451412  6.497456
Ni  2.736476  4.524014  6.366255
Ni  6.393804  8.113439  9.898275
Ni  8.299582  4.411091  8.238350
Ni  8.205009  6.300508  6.325705
Ni  6.310433  4.564084  6.372038
Ni 11.781289  2.709042 10.010654
Ni 11.850302  6.334983  6.383817
Ni 11.733736  4.517488  8.176220
Ni  0.906373  8.142146  8.181556
Ni  0.897698 10.129216  6.380654
Ni  4.547510  9.783792  6.466130
Ni  4.525282  4.644173  8.250520
Ni  6.435781  9.921251  8.102405
Ni  8.193645  8.157629  8.142350
Ni  6.398319  8.087370  6.370376
Ni 11.805908  8.146683  8.145276
Ni 11.765316  9.942676  6.328091
Ni 10.014254  8.182769  6.349104
Ni  0.979041 13.448977  6.350363
Ni  4.515612 13.616499  6.388890
Ni  6.339981 13.572058  8.089591
Ni  9.987980 11.741745  6.343045
Ni 11.752123 11.754881  8.188129
Ni 11.779284 13.577033  6.313713
%ENDBLOCK POSITIONS_ABS

