%block lattice_abc 
  14.46482773 14.46482773 14.46482773 #lattice params 
 90.0  90.0  90.0 
     %endblock lattice_abc 
     fix_all_cell : true 
     %BLOCK POSITIONS_ABS 
Al 13.595392  0.907987  9.978766
 Al 13.602432  4.524694  9.969395
 Al 13.554958  8.033354  9.901535
 Al 13.440369 11.820999 10.068055
 Al 13.520477  0.906180 13.522092
 Al 13.515772  4.540364 13.542404
 Al 13.752027  8.121044 13.651252
 Al 13.657292 11.734346 13.514732
 Al 13.478452  0.786405  2.835918
 Al 13.414910  4.530983  2.832899
 Al 13.571296  8.253866  2.785308
 Al 13.598813 11.759952  2.726327
 Al 13.637149  0.860708  6.345674
 Al 13.606317  4.504224  6.339134
 Al 13.601649  8.196201  6.357745
 Al 13.423303 11.766467  6.363502
 Al 10.122973 13.595634  8.146667
 Al  6.176430 11.741018  6.349275
 Al  8.154596 13.638548  6.282493
 Al  2.551335 13.459213 11.679644
 Al  2.967415 11.732093  6.377772
 Al  2.568058  8.253817  6.384407
 Al  4.602532 13.528660  9.891163
 Al  0.992581 11.853490  8.196770
 Al 10.054394  9.962447  8.238736
 Al  8.183877  9.874210  6.268434
 Al  4.553781  6.467532  9.997574
 Al  2.565179  6.253860  8.167778
 Al 10.121797  2.604728  8.136915
 Al  6.483490  6.301719  8.096953
 Al  4.521153  2.758069  6.550999
 Al  8.236412 13.601863  2.869139
 Al  1.037990 11.754511  4.509486
 Al  6.322437  8.170325  2.792073
 Al  4.510304  8.145121  4.625125
 Al 10.100992  6.309823  4.660320
 Al  8.175988  6.243214  2.866570
 Al  4.526158  4.644619  4.535887
 Al  1.106352  6.418188  2.858218
 Al 10.093090  2.703734  4.552689
 Al  9.990083  6.386136  8.086992
 Al  8.001268  4.580633  0.852885
 Al  7.975019  2.640222  2.801348
 Al  4.540067  0.839585  4.510333
 Al  1.118242  2.695928  2.963928
 Al  9.906707 11.770371 13.572477
 Al 11.675205 11.760522  1.008799
 Al  8.031133 11.697843 11.727869
 Al  6.373499 13.544215  0.956292
 Al  4.546524 13.441216 13.527168
 Al 11.568728  8.167521  0.933958
 Al  6.415661 10.152719  0.975985
 Al  8.285839  8.137277  0.836776
 Al  4.576667  9.986751 13.608530
 Al 10.082370  4.644554 13.446685
 Al  2.766944  4.417295 13.553517
 Al  4.652611  6.491462 13.666626
 Al  0.991949  4.504883  0.954356
 Al 10.144762  2.574642  0.945546
 Al  8.026160  2.556548 13.443192
 Al  2.766580  1.053109 13.535091
 Al  0.988974  0.846434  0.975309
 Al  8.079110 13.644223  9.900730
 Al 11.645536  8.146810 11.800829
 Al  8.131179  8.169880 11.740806
 Al  4.612629  9.825166  9.782428
 Al  2.697333  9.946165 11.838754
 Al  0.946067  9.865923  9.947140
 Al  8.055421  2.622597 10.060370
 Al  8.002116  2.735109  6.378090
 Al 10.018607  4.552207 10.130414
 Al  4.640958  4.382553 11.681012
 Ni 13.596801  2.719149 11.776515
 Ni 13.592960  6.403423 11.813006
 Ni 13.574423  9.825294 11.784071
 Ni 13.596705 13.579115 11.807881
 Ni 11.817202  2.677676  2.748920
 Ni 13.659178  6.299990  1.034511
 Ni 13.575155  9.966131  0.936681
 Ni 13.580740 13.519933  0.924184
 Ni 13.620211  2.675288  4.520952
 Ni 13.571139  6.376309  4.470831
 Ni 13.587066 10.046976  4.541083
 Ni 13.608748 13.471296  4.552292
 Ni 13.591423  2.697073  8.170948
 Ni 13.604487  6.297815  8.157149
 Ni 13.596386 10.042192  8.242771
 Ni 13.557402 13.517973  8.147431
 Ni  0.946333  0.929467 11.768360
 Ni  0.940984  2.712618  9.980810
 Ni  2.732740  2.717088 11.715903
 Ni  4.470685  0.814683 11.771864
 Ni  4.497960  2.686327  9.915148
 Ni  2.726445  0.880153  9.960198
 Ni  6.284609  2.608891 11.751355
 Ni  8.160986  0.824978 11.764503
 Ni  6.289429  0.904254  9.931875
 Ni  9.970000  2.695807 11.819310
 Ni 11.732340  0.900470 11.781761
 Ni  9.940063  6.380213 11.782584
 Ni  9.974918  0.894289  9.985609
 Ni  0.949392  4.524461 11.777785
 Ni  0.935202  6.318018 10.035216
 Ni  2.829432  6.292470 11.858071
 Ni  6.357531  4.559270  9.938867
 Ni  2.746995  4.550574  9.993216
 Ni  6.323877  6.328653 11.768781
 Ni  9.912766  8.168832 13.548914
 Ni 11.830289  4.560816 11.760403
 Ni 11.756592  6.340702  9.965470
 Ni  8.194262  6.302340  9.967287
 Ni  0.980437  8.105859 11.777215
 Ni  4.549930  8.214749 11.765571
 Ni  2.748932  8.112977  9.983711
 Ni  6.339633  9.921142 11.729430
 Ni  9.946378  8.139559  9.950819
 Ni  8.171329  9.948541  9.908081
 Ni  9.944312 10.009422 11.751041
 Ni 11.822636  6.435205 13.631445
 Ni 11.789686  9.927449 10.016724
 Ni  0.894116 11.671074 11.711783
 Ni  0.876292 13.564775  9.933258
 Ni  2.775914 11.667713  9.968425
 Ni  4.574701 11.718084 11.723425
 Ni  2.690308  9.947883  8.157472
 Ni  4.564868 11.702502  8.204755
 Ni  6.357124 13.558035 11.729045
 Ni  9.930934 11.817703  9.982513
 Ni  6.403707 11.729174  9.884553
 Ni  9.946266 13.531210 11.777231
 Ni 11.747517 11.733945 11.798578
 Ni 11.759989 13.583786 10.031616
 Ni  8.179252 11.796321  8.071012
 Ni  0.894629  2.717512 13.599159
 Ni  2.738762  2.709397  0.974281
 Ni  4.548614  0.861380  0.911919
 Ni  4.578107  2.705104 13.590785
 Ni  6.349198  2.699264  0.896921
 Ni  8.179732  0.925505  0.918008
 Ni  6.282357  0.810718 13.568360
 Ni 11.829465  0.833789  0.931708
 Ni 11.791571  2.707187 13.571383
 Ni  9.972302  0.871176 13.580027
 Ni  0.979309  6.260263 13.620654
 Ni  2.770886  6.334224  0.922010
 Ni  4.564282  4.545799  0.910360
 Ni  6.408404  6.426218  1.016679
 Ni  6.299664  4.531822 13.558202
 Ni  8.110451  6.325883 13.549632
 Ni  8.095617  4.512546 11.780459
 Ni  9.904708  6.248598  0.923307
 Ni 13.676749  2.690007  1.053856
 Ni 11.764809  4.534516  0.935632
 Ni  0.985630  8.136596  0.982851
 Ni  0.936064  9.949468 13.637987
 Ni  2.724518  9.962240  0.946462
 Ni  4.562691  8.258885  0.968896
 Ni  2.748758  8.157190 13.609074
 Ni  6.366769 11.775136 13.582249
 Ni  6.383032  8.234604 13.621031
 Ni  9.916724 10.015677  0.959194
 Ni 11.749117  9.962634 13.607779
 Ni  8.166906  9.993987 13.575047
 Ni  0.973536 11.780413  0.913327
 Ni  0.952022 13.621072 13.606894
 Ni  2.763671 13.585896  0.898696
 Ni  4.522902 11.759799  0.950143
 Ni  2.725182 11.751911 13.573426
 Ni  8.183497 11.847943  0.998090
 Ni  8.172936 13.568836 13.564823
 Ni  9.979169 13.606300  0.934052
 Ni 11.760416 13.498925 13.597613
 Ni  0.977961  0.832317  4.555811
 Ni  2.875980  2.713535  4.627149
 Ni  2.739876  0.903787  6.369824
 Ni  4.548955  2.713772  2.690762
 Ni  2.788967  0.877558  2.730312
 Ni  6.318252  0.860576  2.713413
 Ni 11.770453  0.867306  4.584092
 Ni  9.971472  0.937136  2.786719
 Ni  0.958183  4.552029  4.542566
 Ni  2.745783  6.384440  4.638260
 Ni  4.535790  6.391843  2.727977
 Ni  2.778902  4.548674  2.726490
 Ni  6.333857  6.356840  4.583000
 Ni  6.334273  4.534732  2.731777
 Ni  8.142549  4.453536  4.578967
 Ni 11.773630  4.513271  4.594237
 Ni 11.719763  6.369081  2.701396
 Ni  9.895219  4.424427  2.674721
 Ni  0.908493  8.242663  4.535749
 Ni  0.966258  9.994377  2.721883
 Ni  2.755489  9.976723  4.556673
 Ni  4.560052  9.986016  2.772292
 Ni  2.799080  8.206122  2.744963
 Ni  6.320349  9.945823  4.574278
 Ni  8.172213  8.088482  4.547182
 Ni  8.116893  9.922377  2.739643
 Ni  9.974006  9.939076  4.519079
 Ni 11.773988  8.173683  4.554692
 Ni 11.733365  9.948908  2.743738
 Ni  9.893296  8.115724  2.791722
 Ni  0.961931 13.548730  2.726879
 Ni  2.746399 13.534921  4.544411
 Ni  4.542283 11.764291  4.501057
 Ni  4.522303 13.520723  2.731917
 Ni  2.759440 11.768929  2.694856
 Ni  6.325555 13.569842  4.576242
 Ni  8.133413 11.732798  4.628480
 Ni  6.374448 11.806973  2.815978
 Ni  9.989975 13.568619  4.572394
 Ni 11.724039 11.750300  4.529741
 Ni 11.728114 13.523356  2.760932
 Ni  9.908291 11.749164  2.804715
 Ni  0.940752  0.881965  8.160734
 Ni  0.968530  2.695574  6.331278
 Ni  2.682610  2.722020  8.188326
 Ni  4.525420  0.897203  8.174227
 Ni  6.176631  2.730612  4.589156
 Ni  2.743460 13.573242  8.167903
 Ni  6.328009  2.749706  8.210585
 Ni  8.165295  0.923371  8.144158
 Ni  8.115083  0.987876  4.585895
 Ni  6.296272  0.934788  6.386561
 Ni  9.982268  4.430174  6.365242
 Ni 11.838700  0.893417  8.162667
 Ni 11.856297  2.690535  6.358460
 Ni  9.978815  0.923697  6.337436
 Ni  0.900240  4.477796  8.155944
 Ni  0.888456  6.350209  6.306244
 Ni  4.459855  6.451412  6.497456
 Ni  2.736476  4.524014  6.366255
 Ni  6.393804  8.113439  9.898275
 Ni  8.299582  4.411091  8.238350
 Ni  8.205009  6.300508  6.325705
 Ni  6.310433  4.564084  6.372038
 Ni 11.781289  2.709042 10.010654
 Ni 11.850302  6.334983  6.383817
 Ni 11.733736  4.517488  8.176220
 Ni  0.906373  8.142146  8.181556
 Ni  0.897698 10.129216  6.380654
 Ni  4.547510  9.783792  6.466130
 Ni  4.525282  4.644173  8.250520
 Ni  6.435781  9.921251  8.102405
 Ni  8.193645  8.157629  8.142350
 Ni  6.398319  8.087370  6.370376
 Ni 11.805908  8.146683  8.145276
 Ni 11.765316  9.942676  6.328091
 Ni 10.014254  8.182769  6.349104
 Ni  0.979041 13.448977  6.350363
 Ni  4.515612 13.616499  6.388890
 Ni  6.339981 13.572058  8.089591
 Ni  9.987980 11.741745  6.343045
 Ni 11.752123 11.754881  8.188129
 Ni 11.779284 13.577033  6.313713
 %ENDBLOCK POSITIONS_ABS
 
%block positions_abs_product 
     ang 
Al 13.590653  0.905486  9.979721
 Al 13.600509  4.527188  9.971478
 Al 13.550665  8.030019  9.902239
 Al 13.440117 11.817901 10.064215
 Al 13.516043  0.902956 13.517164
 Al 13.512458  4.539040 13.534506
 Al 13.750132  8.119996 13.646020
 Al 13.651301 11.730725 13.514467
 Al 13.471004  0.786836  2.833027
 Al 13.407676  4.530562  2.826973
 Al 13.562374  8.240489  2.784564
 Al 13.590562 11.758766  2.726253
 Al 13.632818  0.864416  6.346686
 Al 13.601902  4.502018  6.346399
 Al 13.599039  8.188708  6.358057
 Al 13.415336 11.766171  6.360684
 Al 10.118806 13.592752  8.142326
 Al  6.178416 11.749000  6.338959
 Al  8.151907 13.639824  6.283707
 Al  2.547897 13.455903 11.682956
 Al  2.945118 11.744808  6.367415
 Al  2.531133  8.276140  6.363048
 Al  4.595704 13.530102  9.890134
 Al  0.991696 11.848579  8.195060
 Al 10.042796  9.955894  8.234702
 Al  8.166170  9.864209  6.272082
 Al  4.545363  6.443452 10.015892
 Al  2.601909  6.265987  8.138426
 Al 10.112458  2.604249  8.139718
 Al  6.438929  6.296913  8.074129
 Al  4.516876  2.764369  6.545354
 Al  8.235221 13.601268  2.872451
 Al  1.028203 11.753997  4.502578
 Al  6.309633  8.164418  2.796082
 Al  4.514055  8.085305  4.656412
 Al 10.092663  6.304066  4.664425
 Al  8.180229  6.237128  2.860673
 Al  4.521562  4.646922  4.546849
 Al  1.106188  6.407501  2.869826
 Al 10.091853  2.701479  4.553896
 Al  9.975859  6.384115  8.087272
 Al  7.997366  4.572726  0.850191
 Al  7.978102  2.635324  2.796033
 Al  4.533226  0.845408  4.506696
 Al  1.102845  2.696855  2.959162
 Al  9.902431 11.766138 13.571254
 Al 11.664891 11.757017  1.006253
 Al  8.022143 11.695008 11.723344
 Al  6.368361 13.541330  0.958799
 Al  4.542562 13.440389 13.533943
 Al 11.563899  8.164301  0.928815
 Al  6.408492 10.148459  0.982249
 Al  8.281640  8.136549  0.839202
 Al  4.568910  9.987661 13.619628
 Al 10.073326  4.644681 13.440005
 Al  2.761094  4.416272 13.555823
 Al  4.650095  6.485315 13.674796
 Al  0.985013  4.506818  0.951404
 Al 10.140963  2.570696  0.938483
 Al  8.020894  2.550579 13.442429
 Al  2.761425  1.050562 13.537511
 Al  0.981521  0.847004  0.969021
 Al  8.071196 13.635933  9.894609
 Al 11.635140  8.146812 11.793155
 Al  8.115943  8.166752 11.734476
 Al  4.609926  9.868299  9.825260
 Al  2.681979  9.945457 11.844367
 Al  0.954709  9.865059  9.943019
 Al  8.046999  2.620398 10.058188
 Al  7.999000  2.733160  6.376029
 Al 10.006451  4.553213 10.130230
 Al  4.640128  4.373247 11.686110
 Ni 13.589574  2.718563 11.770680
 Ni 13.589850  6.405065 11.805839
 Ni 13.569742  9.824665 11.780126
 Ni 13.591011 13.574548 11.804648
 Ni 11.810780  2.677472  2.745820
 Ni 13.646903  6.298780  1.028746
 Ni 13.563946  9.959122  0.936140
 Ni 13.570767 13.516865  0.920863
 Ni 13.609563  2.677223  4.519527
 Ni 13.563282  6.368554  4.478756
 Ni 13.578268 10.039007  4.538587
 Ni 13.600443 13.474520  4.550062
 Ni 13.586834  2.703849  8.177836
 Ni 13.599671  6.293196  8.159939
 Ni 13.592138 10.039290  8.240070
 Ni 13.554580 13.514596  8.147164
 Ni  0.944607  0.927318 11.767615
 Ni  0.939537  2.713578  9.981680
 Ni  2.729373  2.714753 11.716583
 Ni  4.465185  0.814788 11.772503
 Ni  4.492678  2.689257  9.908185
 Ni  2.720762  0.876511  9.960282
 Ni  6.277255  2.601086 11.751522
 Ni  8.154454  0.817994 11.760541
 Ni  6.280745  0.898923  9.929109
 Ni  9.959083  2.692339 11.812136
 Ni 11.724387  0.894879 11.775646
 Ni  9.924667  6.382498 11.777866
 Ni  9.969258  0.888237  9.982851
 Ni  0.946742  4.523608 11.773544
 Ni  0.943412  6.311734 10.022653
 Ni  2.826767  6.288014 11.859117
 Ni  6.338991  4.557504  9.932023
 Ni  2.750171  4.549502  9.986665
 Ni  6.316972  6.324786 11.770026
 Ni  9.901986  8.166810 13.544296
 Ni 11.822731  4.561200 11.756208
 Ni 11.746769  6.345526  9.963503
 Ni  8.171108  6.298489  9.957049
 Ni  0.986277  8.101302 11.761693
 Ni  4.541991  8.209835 11.796405
 Ni  2.761514  8.135205  9.981436
 Ni  6.332286  9.923127 11.742997
 Ni  9.932028  8.137104  9.946561
 Ni  8.146603  9.944234  9.896936
 Ni  9.931853 10.006106 11.744879
 Ni 11.815169  6.435015 13.623336
 Ni 11.779517  9.924859 10.010806
 Ni  0.885735 11.669707 11.710534
 Ni  0.872773 13.562136  9.931046
 Ni  2.770491 11.671265  9.967247
 Ni  4.566653 11.722332 11.731541
 Ni  2.712488  9.941202  8.147502
 Ni  4.555117 11.721991  8.189388
 Ni  6.351483 13.553808 11.729004
 Ni  9.916399 11.811355  9.971077
 Ni  6.389984 11.729733  9.878083
 Ni  9.937974 13.523344 11.772806
 Ni 11.741036 11.728469 11.793628
 Ni 11.753307 13.578454 10.028832
 Ni  8.158012 11.773537  8.058715
 Ni  0.887413  2.715831 13.597067
 Ni  2.729087  2.711126  0.973422
 Ni  4.544820  0.862825  0.912689
 Ni  4.575019  2.701652 13.593687
 Ni  6.346107  2.692148  0.895376
 Ni  8.176803  0.919979  0.915649
 Ni  6.279007  0.805729 13.571116
 Ni 11.824446  0.830759  0.928332
 Ni 11.783919  2.704760 13.562683
 Ni  9.966857  0.864987 13.574210
 Ni  0.970611  6.259832 13.618564
 Ni  2.765709  6.330324  0.927065
 Ni  4.560423  4.542566  0.914626
 Ni  6.404012  6.420720  1.021315
 Ni  6.295228  4.526435 13.560709
 Ni  8.102260  6.325113 13.549471
 Ni  8.081276  4.510412 11.777387
 Ni  9.900146  6.246475  0.917789
 Ni 13.666699  2.690275  1.048914
 Ni 11.757698  4.535023  0.926386
 Ni  0.977623  8.128338  0.988425
 Ni  0.926622  9.947016 13.642471
 Ni  2.716873  9.954586  0.952913
 Ni  4.555495  8.251317  0.974687
 Ni  2.735472  8.149519 13.616528
 Ni  6.358803 11.775414 13.584779
 Ni  6.380461  8.230969 13.633189
 Ni  9.910547 10.012138  0.959593
 Ni 11.740307  9.961173 13.604811
 Ni  8.160689  9.992142 13.577165
 Ni  0.965885 11.778906  0.915095
 Ni  0.944562 13.618998 13.608052
 Ni  2.756859 13.584173  0.902310
 Ni  4.515827 11.759190  0.957401
 Ni  2.718085 11.751490 13.581388
 Ni  8.179744 11.843591  1.001513
 Ni  8.167707 13.565552 13.564330
 Ni  9.974238 13.601252  0.933083
 Ni 11.754099 13.492208 13.593844
 Ni  0.967177  0.836740  4.552289
 Ni  2.860764  2.715889  4.624635
 Ni  2.731410  0.906360  6.366892
 Ni  4.543443  2.713509  2.690638
 Ni  2.780956  0.879457  2.727883
 Ni  6.314160  0.859170  2.713825
 Ni 11.764663  0.869170  4.585853
 Ni  9.971003  0.933524  2.785522
 Ni  0.946386  4.542984  4.546639
 Ni  2.748508  6.384935  4.664580
 Ni  4.532154  6.380976  2.753034
 Ni  2.773188  4.544827  2.735156
 Ni  6.352691  6.331500  4.567500
 Ni  6.334419  4.523588  2.727123
 Ni  8.148994  4.443824  4.569759
 Ni 11.768571  4.510966  4.597818
 Ni 11.709969  6.364572  2.701539
 Ni  9.896314  4.418227  2.667534
 Ni  0.896139  8.233815  4.528496
 Ni  0.952633  9.988356  2.718935
 Ni  2.740920  9.973258  4.537902
 Ni  4.549920  9.977364  2.778125
 Ni  2.795331  8.195819  2.750993
 Ni  6.317921  9.937135  4.565576
 Ni  8.169133  8.084518  4.543377
 Ni  8.113505  9.918918  2.741404
 Ni  9.967013  9.932157  4.523779
 Ni 11.766459  8.166878  4.557140
 Ni 11.724008  9.943367  2.747134
 Ni  9.892794  8.111242  2.791869
 Ni  0.952451 13.551387  2.725780
 Ni  2.737610 13.539945  4.538658
 Ni  4.532803 11.764894  4.499575
 Ni  4.515323 13.524352  2.733757
 Ni  2.751633 11.769206  2.691773
 Ni  6.320996 13.573613  4.575193
 Ni  8.131611 11.731052  4.630114
 Ni  6.370363 11.803153  2.821151
 Ni  9.986381 13.569026  4.574990
 Ni 11.718582 11.746686  4.529745
 Ni 11.721535 13.522112  2.760335
 Ni  9.904972 11.746695  2.807391
 Ni  0.931849  0.878347  8.163562
 Ni  0.953336  2.688620  6.332671
 Ni  2.676414  2.718750  8.183029
 Ni  4.519218  0.896708  8.169072
 Ni  6.181139  2.730017  4.582365
 Ni  2.736452 13.577486  8.164042
 Ni  6.320262  2.749089  8.207231
 Ni  8.156344  0.924710  8.141493
 Ni  8.115349  0.987317  4.585072
 Ni  6.289431  0.935996  6.382537
 Ni  9.976481  4.427645  6.369969
 Ni 11.836824  0.893566  8.163006
 Ni 11.851962  2.692426  6.364033
 Ni  9.975649  0.922525  6.338016
 Ni  0.911307  4.484189  8.156498
 Ni  0.902218  6.345191  6.312587
 Ni  4.496097  7.974724  8.036122
 Ni  2.719534  4.511459  6.357214
 Ni  6.374240  8.121985  9.901981
 Ni  8.283534  4.409001  8.238676
 Ni  8.185106  6.294403  6.321665
 Ni  6.323428  4.553189  6.357777
 Ni 11.773004  2.706336 10.012122
 Ni 11.842440  6.330059  6.388269
 Ni 11.724455  4.516051  8.181419
 Ni  0.892980  8.137693  8.179981
 Ni  0.880895 10.136954  6.376937
 Ni  4.532841  9.834450  6.378287
 Ni  4.515768  4.655703  8.208877
 Ni  6.383214  9.905153  8.083473
 Ni  8.177408  8.149464  8.135653
 Ni  6.383101  8.076275  6.340015
 Ni 11.802082  8.143982  8.145813
 Ni 11.762232  9.937316  6.329972
 Ni 10.005380  8.178660  6.348826
 Ni  0.971177 13.449727  6.345869
 Ni  4.507829 13.620686  6.383204
 Ni  6.332843 13.573683  8.082728
 Ni  9.986248 11.737492  6.342215
 Ni 11.746427 11.749039  8.185157
 Ni 11.775236 13.576576  6.314158
%endblock positions_abs_product 
%block positions_abs_intermediate 
     ang 
Al 13.593022  0.906737  9.979244
 Al 13.601470  4.525941  9.970436
 Al 13.552812  8.031687  9.901887
 Al 13.440243 11.819450 10.066135
 Al 13.518260  0.904568 13.519628
 Al 13.514115  4.539702 13.538455
 Al 13.751079  8.120520 13.648636
 Al 13.654297 11.732536 13.514599
 Al 13.474728  0.786621  2.834472
 Al 13.411293  4.530772  2.829936
 Al 13.566835  8.247177  2.784936
 Al 13.594688 11.759359  2.726290
 Al 13.634983  0.862562  6.346180
 Al 13.604110  4.503121  6.342767
 Al 13.600344  8.192454  6.357901
 Al 13.419320 11.766319  6.362093
 Al 10.120890 13.594193  8.144497
 Al  6.177423 11.745009  6.344117
 Al  8.153252 13.639186  6.283100
 Al  2.549616 13.457558 11.681300
 Al  2.956267 11.738450  6.372594
 Al  2.549596  8.264979  6.373728
 Al  4.599118 13.529381  9.890648
 Al  0.992138 11.851034  8.195915
 Al 10.048595  9.959171  8.236719
 Al  8.175024  9.869210  6.270258
 Al  4.549572  6.455492 10.006733
 Al  2.583544  6.259923  8.153102
 Al 10.117128  2.604489  8.138317
 Al  6.461209  6.299316  8.085541
 Al  4.519014  2.761219  6.548177
 Al  8.235816 13.601566  2.870795
 Al  1.033096 11.754254  4.506032
 Al  6.316035  8.167371  2.794078
 Al  4.512179  8.115213  4.640769
 Al 10.096828  6.306944  4.662372
 Al  8.178109  6.240171  2.863621
 Al  4.523860  4.645771  4.541368
 Al  1.106270  6.412844  2.864022
 Al 10.092471  2.702607  4.553292
 Al  9.982971  6.385125  8.087132
 Al  7.999317  4.576680  0.851538
 Al  7.976560  2.637773  2.798691
 Al  4.536646  0.842497  4.508515
 Al  1.110543  2.696391  2.961545
 Al  9.904569 11.768254 13.571866
 Al 11.670048 11.758769  1.007526
 Al  8.026638 11.696425 11.725606
 Al  6.370930 13.542773  0.957546
 Al  4.544543 13.440802 13.530556
 Al 11.566313  8.165911  0.931387
 Al  6.412076 10.150589  0.979117
 Al  8.283739  8.136913  0.837989
 Al  4.572788  9.987206 13.614079
 Al 10.077848  4.644618 13.443345
 Al  2.764019  4.416783 13.554670
 Al  4.651353  6.488389 13.670711
 Al  0.988481  4.505851  0.952880
 Al 10.142862  2.572669  0.942014
 Al  8.023527  2.553563 13.442810
 Al  2.764003  1.051836 13.536301
 Al  0.985248  0.846719  0.972165
 Al  8.075153 13.640078  9.897670
 Al 11.640338  8.146811 11.796992
 Al  8.123561  8.168316 11.737641
 Al  4.611277  9.846732  9.803844
 Al  2.689656  9.945811 11.841561
 Al  0.950388  9.865491  9.945080
 Al  8.051210  2.621497 10.059279
 Al  8.000558  2.734134  6.377059
 Al 10.012529  4.552710 10.130322
 Al  4.640543  4.377900 11.683561
 Ni 13.593188  2.718856 11.773597
 Ni 13.591405  6.404244 11.809423
 Ni 13.572083  9.824979 11.782098
 Ni 13.593858 13.576831 11.806264
 Ni 11.813991  2.677574  2.747370
 Ni 13.653041  6.299385  1.031628
 Ni 13.569550  9.962626  0.936411
 Ni 13.575754 13.518399  0.922524
 Ni 13.614887  2.676256  4.520239
 Ni 13.567210  6.372431  4.474793
 Ni 13.582667 10.042991  4.539835
 Ni 13.604595 13.472908  4.551177
 Ni 13.589128  2.700461  8.174392
 Ni 13.602079  6.295506  8.158544
 Ni 13.594262 10.040741  8.241421
 Ni 13.555991 13.516285  8.147298
 Ni  0.945470  0.928392 11.767988
 Ni  0.940261  2.713098  9.981245
 Ni  2.731057  2.715921 11.716243
 Ni  4.467935  0.814736 11.772183
 Ni  4.495319  2.687792  9.911667
 Ni  2.723603  0.878332  9.960240
 Ni  6.280932  2.604989 11.751438
 Ni  8.157720  0.821486 11.762522
 Ni  6.285087  0.901589  9.930492
 Ni  9.964542  2.694073 11.815723
 Ni 11.728363  0.897674 11.778704
 Ni  9.932365  6.381356 11.780225
 Ni  9.972088  0.891263  9.984230
 Ni  0.948067  4.524035 11.775664
 Ni  0.939307  6.314876 10.028934
 Ni  2.828099  6.290242 11.858594
 Ni  6.348261  4.558387  9.935445
 Ni  2.748583  4.550038  9.989940
 Ni  6.320425  6.326719 11.769403
 Ni  9.907376  8.167821 13.546605
 Ni 11.826510  4.561008 11.758306
 Ni 11.751681  6.343114  9.964487
 Ni  8.182685  6.300414  9.962168
 Ni  0.983357  8.103581 11.769454
 Ni  4.545961  8.212292 11.780988
 Ni  2.755223  8.124091  9.982573
 Ni  6.335960  9.922134 11.736213
 Ni  9.939203  8.138332  9.948690
 Ni  8.158966  9.946387  9.902509
 Ni  9.938083 10.007764 11.747960
 Ni 11.818903  6.435110 13.627391
 Ni 11.784601  9.926154 10.013765
 Ni  0.889926 11.670390 11.711159
 Ni  0.874532 13.563456  9.932152
 Ni  2.773202 11.669489  9.967836
 Ni  4.570677 11.720208 11.727483
 Ni  2.701398  9.944542  8.152487
 Ni  4.559992 11.712246  8.197071
 Ni  6.354304 13.555921 11.729024
 Ni  9.923667 11.814529  9.976795
 Ni  6.396846 11.729454  9.881318
 Ni  9.942120 13.527277 11.775018
 Ni 11.744276 11.731207 11.796103
 Ni 11.756648 13.581120 10.030224
 Ni  8.168632 11.784929  8.064864
 Ni  0.891021  2.716672 13.598113
 Ni  2.733925  2.710261  0.973851
 Ni  4.546717  0.862103  0.912304
 Ni  4.576563  2.703378 13.592236
 Ni  6.347653  2.695706  0.896148
 Ni  8.178267  0.922742  0.916829
 Ni  6.280682  0.808223 13.569738
 Ni 11.826956  0.832274  0.930020
 Ni 11.787745  2.705973 13.567033
 Ni  9.969580  0.868082 13.577119
 Ni  0.974960  6.260047 13.619609
 Ni  2.768297  6.332274  0.924537
 Ni  4.562352  4.544182  0.912493
 Ni  6.406208  6.423469  1.018997
 Ni  6.297446  4.529128 13.559456
 Ni  8.106355  6.325498 13.549552
 Ni  8.088447  4.511479 11.778923
 Ni  9.902427  6.247536  0.920548
 Ni 13.671724  2.690141  1.051385
 Ni 11.761254  4.534769  0.931009
 Ni  0.981627  8.132467  0.985638
 Ni  0.931343  9.948242 13.640229
 Ni  2.720696  9.958413  0.949688
 Ni  4.559093  8.255101  0.971791
 Ni  2.742115  8.153355 13.612801
 Ni  6.362786 11.775275 13.583514
 Ni  6.381746  8.232787 13.627110
 Ni  9.913636 10.013908  0.959393
 Ni 11.744712  9.961904 13.606295
 Ni  8.163797  9.993065 13.576106
 Ni  0.969710 11.779659  0.914211
 Ni  0.948292 13.620035 13.607473
 Ni  2.760265 13.585034  0.900503
 Ni  4.519365 11.759495  0.953772
 Ni  2.721633 11.751701 13.577407
 Ni  8.181621 11.845767  0.999802
 Ni  8.170322 13.567194 13.564577
 Ni  9.976703 13.603776  0.933567
 Ni 11.757258 13.495567 13.595729
 Ni  0.972569  0.834528  4.554050
 Ni  2.868372  2.714712  4.625892
 Ni  2.735643  0.905074  6.368358
 Ni  4.546199  2.713641  2.690700
 Ni  2.784962  0.878508  2.729098
 Ni  6.316206  0.859873  2.713619
 Ni 11.767558  0.868238  4.584972
 Ni  9.971237  0.935330  2.786121
 Ni  0.952285  4.547507  4.544603
 Ni  2.747146  6.384687  4.651420
 Ni  4.533972  6.386409  2.740506
 Ni  2.776045  4.546751  2.730823
 Ni  6.343274  6.344170  4.575250
 Ni  6.334346  4.529160  2.729450
 Ni  8.145772  4.448680  4.574363
 Ni 11.771101  4.512118  4.596027
 Ni 11.714866  6.366826  2.701467
 Ni  9.895766  4.421327  2.671127
 Ni  0.902316  8.238239  4.532122
 Ni  0.959446  9.991366  2.720409
 Ni  2.748204  9.974991  4.547288
 Ni  4.554986  9.981690  2.775208
 Ni  2.797206  8.200971  2.747978
 Ni  6.319135  9.941479  4.569927
 Ni  8.170673  8.086500  4.545279
 Ni  8.115199  9.920647  2.740523
 Ni  9.970509  9.935617  4.521429
 Ni 11.770224  8.170280  4.555916
 Ni 11.728687  9.946138  2.745436
 Ni  9.893045  8.113483  2.791795
 Ni  0.957191 13.550058  2.726329
 Ni  2.742004 13.537433  4.541534
 Ni  4.537543 11.764593  4.500316
 Ni  4.518813 13.522538  2.732837
 Ni  2.755536 11.769068  2.693314
 Ni  6.323275 13.571727  4.575718
 Ni  8.132512 11.731925  4.629297
 Ni  6.372405 11.805063  2.818564
 Ni  9.988178 13.568823  4.573692
 Ni 11.721311 11.748493  4.529743
 Ni 11.724825 13.522734  2.760633
 Ni  9.906631 11.747930  2.806053
 Ni  0.936301  0.880156  8.162148
 Ni  0.960933  2.692097  6.331974
 Ni  2.679512  2.720385  8.185678
 Ni  4.522319  0.896956  8.171650
 Ni  6.178885  2.730314  4.585760
 Ni  2.739956 13.575364  8.165973
 Ni  6.324136  2.749398  8.208908
 Ni  8.160819  0.924041  8.142826
 Ni  8.115216  0.987596  4.585484
 Ni  6.292851  0.935392  6.384549
 Ni  9.979375  4.428909  6.367605
 Ni 11.837762  0.893492  8.162836
 Ni 11.854129  2.691480  6.361247
 Ni  9.977232  0.923111  6.337726
 Ni  0.905773  4.480992  8.156221
 Ni  0.895337  6.347700  6.309416
 Ni  4.477976  7.213068  7.266789
 Ni  2.728005  4.517736  6.361734
 Ni  6.384022  8.117712  9.900128
 Ni  8.291558  4.410046  8.238513
 Ni  8.195058  6.297455  6.323685
 Ni  6.316930  4.558636  6.364908
 Ni 11.777147  2.707689 10.011388
 Ni 11.846371  6.332521  6.386043
 Ni 11.729096  4.516770  8.178820
 Ni  0.899677  8.139919  8.180768
 Ni  0.889297 10.133085  6.378795
 Ni  4.540175  9.809121  6.422208
 Ni  4.520525  4.649938  8.229699
 Ni  6.409498  9.913202  8.092939
 Ni  8.185526  8.153546  8.139002
 Ni  6.390710  8.081822  6.355195
 Ni 11.803995  8.145332  8.145544
 Ni 11.763774  9.939996  6.329031
 Ni 10.009817  8.180715  6.348965
 Ni  0.975109 13.449352  6.348116
 Ni  4.511721 13.618593  6.386047
 Ni  6.336412 13.572870  8.086160
 Ni  9.987114 11.739619  6.342630
 Ni 11.749275 11.751960  8.186643
 Ni 11.777260 13.576805  6.313935
%endblock positions_abs_intermediate 
     kpoint_mp_grid 1 1 1 
     fix_com : false