#######################################################
#CASTEP cell file: /home/u2093113/Documents/kART/barriers/CASTEP/castep.cell
#Created using the Atomic Simulation Environment (ASE)#
#######################################################

%BLOCK LATTICE_CART
14.464828  0.000000  0.000000
 0.000000 14.464828  0.000000
 0.000000  0.000000 14.464828
%ENDBLOCK LATTICE_CART

%BLOCK POSITIONS_ABS
Ni  0.889766  2.714337 13.597827
Ni  2.679797  0.907134 13.596300
Ni  2.671574  2.702970 11.794186
Al  0.858659  0.908955 11.791446
Ni  0.890150  6.321001 13.598769
Ni  2.676373  4.512043 13.605400
Ni  2.663699  6.318772 11.807178
Al  0.872855  4.516627 11.785561
Ni  0.880035  9.945669 13.585586
Ni  2.659353  8.130041 13.616718
Ni  2.671405  9.949221 11.795336
Al  0.877787  8.134779 11.781001
Ni  0.881405 13.569945 13.587939
Ni  2.669122 11.760375 13.585440
Ni  2.676696 13.573855 11.790286
Al  0.867460 11.761019 11.783060
Ni  0.895175  2.723513  2.738111
Ni  2.676400  0.914655  2.735323
Ni  2.686713  2.713937  0.938708
Al  0.857892  0.916939  0.931375
Ni  0.892026  6.317369  2.740472
Ni  2.714343  4.518523  2.741802
Ni  2.683831  6.321597  0.944026
Al  0.872024  4.519039  0.941157
Ni  0.859159  9.948217  2.723710
Ni  2.651679  8.144987  2.718110
Ni  2.650233  9.947114  0.918706
Al  0.851923  8.129179  0.934183
Ni  0.882686 13.575040  2.732779
Ni  2.621942 11.751065  2.725453
Ni  2.651598 13.566541  0.917917
Al  0.840316 11.758227  0.916977
Ni  0.882644  2.722394  6.351860
Ni  2.641911  0.925406  6.345703
Ni  2.677638  2.726110  4.543659
Al  0.845167  0.922977  4.536712
Ni  0.928997  6.326029  6.374398
Ni  2.685626  4.499929  6.360931
Ni  2.687703  6.336872  4.533248
Al  0.876118  4.528419  4.547677
Ni  0.876677  9.949298  6.358680
Ni  2.701195  8.151081  6.348915
Ni  2.618152  9.967664  4.528198
Al  0.869231  8.132577  4.551428
Ni  0.874539 13.577803  6.351760
Ni  2.641045 11.780089  6.350835
Ni  2.636321 13.574478  4.541482
Al  0.831836 11.759782  4.544735
Ni  0.886504  2.719472  9.987816
Ni  2.661029  0.907874  9.985353
Ni  2.652014  2.689237  8.175858
Al  0.844385  0.918042  8.172120
Ni  0.922327  6.323139  9.967419
Ni  2.706900  4.504345  9.990537
Ni  2.791859  6.321043  8.190510
Al  0.896977  4.530422  8.175445
Ni  0.897244  9.947506  9.983425
Ni  2.696415  8.139794  9.972125
Ni  2.643710  9.975814  8.161687
Al  0.901975  8.123075  8.165033
Ni  0.884643 13.570878  9.979832
Ni  2.669259 11.778786  9.963755
Ni  2.644125 13.592242  8.158160
Al  0.849375 11.765020  8.170346
Ni  4.482175  2.699027 13.585160
Ni  6.275883  0.904996 13.582584
Ni  6.289556  2.693767 11.780267
Ni  4.460253  0.910744 11.777608
Ni  8.116646  2.708250 13.529152
Ni  9.853440  0.810857 13.543660
Ni  9.922432  2.693156 11.728514
Ni  8.074544  0.860689 11.774858
Ni 11.702014  2.647080 13.545803
Ni 13.529485  0.841126 13.551553
Ni 11.679368  0.854950 11.746743
Ni  4.481691  6.327655 13.587456
Ni  6.291777  4.509119 13.605818
Ni  6.299583  6.345271 11.837236
Ni  4.470909  4.496759 11.814001
Ni  8.159061  6.322372 13.629840
Al 11.561184 11.752990  8.138419
Ni 11.737396  4.577777 11.756828
Ni  8.112939  4.549236 11.813128
Ni 11.720515  6.389875 13.582166
Al 13.539002 13.653971  8.116758
Al  7.919961 13.447697 13.498886
Al  8.206707 11.727345  8.147618
Ni 13.552820  6.340730 11.746436
Ni  4.463669  9.928092 13.617530
Ni  6.266657  8.133881 13.624360
Al  7.953876  8.198445  8.090090
Ni  4.423557  8.127820 11.802343
Al  9.939589 13.502596 11.699166
Ni  9.918818  8.233297 13.602351
Al  6.174503 11.829552  9.935406
Ni  8.065585  8.176094 11.785265
Ni 11.729653  9.938643 13.556618
Ni 13.536775  9.955460 11.708201
Al 13.552653  9.980235  8.141906
Ni  4.488545 13.566911 13.597801
Ni  6.202986 11.711103 13.565067
Ni  6.224828 13.549332 11.746461
Ni  4.425240 11.754715 11.768815
Ni  8.026328 11.672166 11.730158
Ni  9.875802 11.689028 13.505530
Ni  8.030101  9.930888  9.962611
Ni  9.881416 11.719945  9.960976
Ni 11.712033 13.492323 13.538929
Al  9.909940  6.461054 11.838714
Ni 11.735797 11.733064 11.701389
Ni 13.572946 11.795399  9.890945
Ni  4.510767  2.700826  2.779264
Al  7.957415  6.297971  9.977427
Ni  6.267975  2.699672  0.922824
Ni  4.463169  0.894090  0.952101
Ni  8.058803  2.699759  2.731416
Ni  9.887725  0.866164  2.693158
Ni  9.938035  2.688858  0.895937
Al  4.464444  8.287948  8.149805
Ni 11.739344  2.671857  2.696739
Ni 13.555678  0.860122  2.725024
Ni 11.672948  0.811117  0.904765
Al 11.821448  6.349822  9.866210
Ni  4.526619  6.349216  2.792033
Al  9.889312  2.740320  8.326197
Ni  6.300657  6.321225  0.924015
Ni  4.465850  4.526269  0.921312
Ni  8.106850  6.320393  2.665193
Ni  9.914763  4.521675  2.685011
Al  4.476013  4.362398  8.180819
Al  4.495564  6.314397 10.105902
Ni 11.713764  6.371091  2.750228
Ni 11.712313  4.520668  0.909145
Ni 13.515792  6.341052  0.919902
Ni 13.518808  4.517416 13.594362
Al 13.630120 13.610802  4.672742
Ni  4.458214  9.989675  2.707424
Ni  6.288919  8.139847  2.748898
Ni  6.263083  9.946371  0.953196
Ni  4.455122  8.124467  0.962346
Ni  8.098495  9.987049  2.704461
Ni  9.938334  8.210649  2.748709
Al  6.279853 11.721936  6.257625
Ni  8.102073  8.171521  0.944057
Ni 11.740431 11.742827  0.936763
Al  4.398674 13.639920  6.340586
Al 13.481469  8.110951  6.253935
Ni 11.779241  8.226191  0.999192
Al  9.950869  8.152836  6.239347
Ni 13.535122  9.974189  0.969341
Al  4.405768  8.260945  4.465964
Ni  6.254948 11.789425  2.737709
Ni  6.271999 13.583234  0.940792
Ni  4.434280 11.761035  0.930524
Ni  8.088302 13.580018  2.677033
Ni  9.914715 11.778176  2.738711
Ni  8.067689 11.755681  0.908363
Al 13.386463  4.573391  6.325424
Ni 13.595907 11.813454  2.775966
Ni 13.537401 13.536292  0.891651
Al  9.844824  4.634196  6.285254
Al  6.504123  6.357560  4.586382
Al  4.432822  6.285579  6.318353
Ni  4.486744  2.694073  6.359553
Ni  6.311026  0.875113  6.360497
Ni  4.463630  0.907852  4.540702
Ni  8.200036  2.725512  6.398025
Ni  8.114336  0.891646  8.165606
Ni  9.910900  2.690215  4.510323
Ni  8.085894  0.902582  4.527507
Al 13.454626  4.625183  2.752813
Al 13.401900  2.560190  4.548581
Ni 11.683482  0.834595  4.533617
Al  9.866243  0.845364  6.301028
Al  6.324225  2.719518  4.722357
Ni  6.347421  4.564078  6.362087
Ni  4.523918  4.534779  4.565280
Ni  9.830640  6.352548  4.500221
Al 13.479347 11.664329 13.547151
Ni 11.741205  8.175151  4.498316
Ni  8.096163  4.496585  4.494299
Ni  9.803636  6.402086  8.104192
Al 11.756221 13.537589  2.747187
Al  9.923654 13.442864  0.846035
Ni 11.670210  4.510659  4.510716
Ni 13.557836  6.309733  4.582284
Ni  4.461952  9.980611  6.312101
Ni  6.230346  8.143423  6.299054
Ni  6.275819  9.958175  4.483598
Al  4.380233 13.491020  2.739193
Ni  8.091398  9.952314  6.313478
Ni  9.920324  9.997828  4.509669
Ni  8.107468  8.185755  4.538989
Ni 11.727399  9.967312  6.335227
Ni 11.658904  6.353624  6.328327
Ni 13.566773  9.984918  4.584465
Al 11.785556 10.075229  2.845887
Al 13.632992  8.087693  2.782348
Al  9.931838  9.987914  0.938638
Ni  6.244471 13.568753  4.525588
Ni  4.424382 11.757910  4.550941
Ni  8.074873 13.530009  6.331609
Ni  9.882538 11.758657  6.317539
Ni  9.893625 13.556725  4.513134
Ni  8.076604 11.763169  4.515707
Ni 11.712631 13.570911  6.368671
Ni 13.538994 11.783603  6.421680
Ni 11.764612 11.831403  4.582159
Ni  4.503272  2.681069  9.984744
Ni  6.290591  0.880899  9.943606
Ni  6.329797  2.692459  8.137698
Ni  4.464172  0.925188  8.158216
Ni  8.071060  2.743151  9.999662
Ni  9.859228  0.884636  9.985741
Ni 11.597937  2.727140  6.378418
Ni  8.059048 13.520923  9.973886
Ni 11.717003  2.738649 10.000174
Ni 13.576816  0.900935  9.963973
Ni 13.534373  0.967485  6.384858
Ni 11.641287  0.903135  8.165672
Al  8.100438  4.446020  0.891108
Ni  6.252823  4.501508  9.993500
Ni  6.175107  6.332601  8.149310
Al  9.987076  6.470108  0.960272
Ni  9.866429  8.075583  9.930232
Al  6.209055  4.500920  2.686173
Ni  8.087932  4.566745  8.167689
Ni 11.754148  8.135136 11.718496
Ni 13.620902  4.478484  9.995248
Ni 13.570000  6.322538  8.080697
Ni 11.666777  4.545805  8.173118
Al 13.443856  2.582474  0.833758
Ni  4.458908  9.975558  9.965239
Ni  6.224134  8.144552  9.957997
Ni  6.277766 10.039476  8.142047
Al  8.112257  1.002904  0.869638
Al  6.265193  0.903868  2.759650
Al 13.482081 13.607454 11.714916
Ni  9.879530  9.880088  8.143951
Ni  9.894471  4.642724 10.012084
Ni 11.741162  9.926131  9.900858
Ni 13.585675  8.161387  9.908250
Ni 11.729176  8.156784  8.108837
Al 13.544226  8.178187 13.588398
Ni  4.452998 13.595684  9.937414
Al  9.955261  9.909976 11.686569
Ni  6.286582 13.520445  8.113158
Ni  4.439177 11.776326  8.101965
Al  8.000143  9.957606 13.631070
Al  6.159103  9.870203 11.769784
Ni  9.887372 13.577127  8.166484
Al 13.444916  2.637954 11.811354
Al 13.403919  2.646280  8.206203
Ni 11.730496 13.548741  9.913280
Al 10.012839  4.422740 13.524149
%ENDBLOCK POSITIONS_ABS

FIX_ALL_CELL: TRUE
KPOINT_MP_GRID: 1 1 1
