#######################################################
#CASTEP cell file: /home/u2093113/Documents/kART/CASTEP/castep.cell
#Created using the Atomic Simulation Environment (ASE)#
#######################################################

%BLOCK LATTICE_CART
14.464828  0.000000  0.000000
 0.000000 14.464828  0.000000
 0.000000  0.000000 14.464828
%ENDBLOCK LATTICE_CART

%BLOCK POSITIONS_ABS
Al  8.230275  4.448654  0.927463
Al 11.848812  4.462098  0.915621
Al  8.226889  8.095981  0.967638
Al 11.858302  8.086468  0.927719
Al  8.311748 11.698017  0.851119
Al 11.883341 11.687982  0.900132
Al  8.250772  0.853863  0.919076
Al 11.862214  0.853205  0.899292
Al  8.225279  4.430297  4.517243
Al 11.848963  4.473656  4.517820
Al  8.288669  8.001767  4.497470
Al 11.855328  8.074461  4.527365
Al  8.399308 11.803963  4.538564
Al 11.874855 11.681877  4.531179
Al  8.305516  0.823784  4.457172
Al 11.884751  0.863408  4.513620
Al  8.180543  4.472416  8.129697
Al 11.826993  4.488525  8.137585
Al  8.166006  8.058365  8.129851
Al 11.820453  8.070241  8.128696
Al  8.300832 11.706535  8.202325
Al 11.891475 11.670874  8.149759
Al  8.350540  0.831632  8.243070
Al 11.837596  0.852913  8.152394
Al  8.259139  4.460201 11.781429
Al 11.807350  4.486049 11.761830
Al  8.208947  8.081069 11.788931
Al 11.826810  8.080483 11.762490
Al  8.233991 11.693285 11.779906
Al 11.840979 11.668270 11.777866
Al  8.252359  0.845105 11.755096
Al 11.879204  0.842966 11.775230
Al  4.764655  2.654152 13.542864
Al  0.824803  0.870968 11.741952
Al  2.804213  2.758754 11.633977
Al  4.663520 13.541167 13.633946
Al  2.780839 13.411124 11.670008
Al  4.608728  9.988400 13.690337
Al  0.988339  9.875426 13.549190
Al  2.856987  2.700161  8.265867
Al  0.868466 11.665311  8.273293
Al  4.728982  9.970640  9.963151
Al  2.792112  9.653219  8.154978
Al  4.927786  6.195177  9.778692
Al  4.712761  8.026929 11.866193
Al  2.769230  6.273862  8.038036
Al  0.820792  6.267747  9.957714
Al  4.545712  0.852386  4.525510
Al  6.374267  0.843390  6.444885
Al  2.640475  0.784513  2.691831
Al  0.915181  2.673837  6.278740
Al  6.249850 11.797499  6.381037
Al  0.898301 13.641184  6.286504
Al  2.888156 11.700249  6.237687
Al  6.236827  9.790682  4.485443
Al  4.887151  6.225724  6.370765
Al  2.727374  6.151920  4.527636
Al  2.697638  2.716299  0.877694
Al  6.288060 11.821468  2.654144
Al  2.763101 11.713855  2.709855
Al  2.800654  6.177527  0.822280
Al  2.760516  6.169154 11.927922
Al  2.767313  8.196354  2.689397
Ni  8.215153  6.242728  2.703161
Ni 10.046981  4.455303  2.722991
Ni 10.046925  6.275767  0.939063
Ni 11.861252  6.275353  2.724420
Ni 13.661887  4.478273  2.703016
Ni 13.640352  6.289531  0.913996
Ni  8.176051  9.976623  2.826994
Ni 10.044212  8.086045  2.729217
Ni 10.052367  9.881024  0.939015
Ni 11.867325  9.878034  2.733669
Ni 13.685694  8.076626  2.727088
Ni 13.674720  9.885257  0.924115
Ni  8.250758 13.462912  2.709260
Ni 10.081586 11.694038  2.706301
Ni 10.055327 13.507630  0.903921
Ni 11.870799 13.507349  2.692776
Ni 13.657956 11.687196  2.719201
Ni 13.672403 13.494486  0.890483
Ni  8.229909  2.650569  2.729199
Ni 10.077225  0.847766  2.701417
Ni 10.040959  2.656513  0.910424
Ni 11.855723  2.662479  2.694044
Ni 13.683137  0.857222  2.686467
Ni 13.668079  2.661614  0.899521
Ni  8.162798  6.245897  6.324783
Ni 10.014669  4.466307  6.332350
Ni 10.041154  6.249189  4.518835
Ni 11.823644  6.284694  6.312282
Ni 13.649551  4.492704  6.320358
Ni 13.674856  6.276256  4.511190
Ni  8.170322  9.994792  6.225015
Ni  9.987901  8.081401  6.330593
Ni 10.054541  9.887067  4.531270
Ni 11.850027  9.860039  6.337188
Ni 13.674318  8.076034  6.323430
Ni 13.685160  9.882150  4.541701
Ni  8.239199 13.524214  6.362863
Ni 10.081248 11.700463  6.355457
Ni 10.112388 13.532543  4.528200
Ni 11.889980 13.486480  6.343337
Ni 13.704758 11.673772  6.340578
Ni 13.652923 13.506776  4.495274
Ni  8.245305  2.566370  6.343090
Ni 10.086882  0.833515  6.336219
Ni 10.056764  2.650552  4.529860
Ni 11.849781  2.692461  6.336440
Ni 13.609189  0.887203  6.357189
Ni 13.624882  2.671207  4.482267
Ni  8.167227  6.265029  9.935953
Ni 10.017705  4.479692  9.940540
Ni  9.979067  6.275858  8.130106
Ni 11.838225  6.285273  9.945029
Ni 13.622966  4.445828  9.947722
Ni 13.615027  6.272411  8.096365
Ni  8.203656  9.889216  9.957445
Ni  9.993303  8.074796  9.939508
Ni 10.005248  9.874757  8.123952
Ni 11.816391  9.866866  9.942737
Ni 13.635652  8.103973  9.948094
Ni 13.663121  9.840384  8.144006
Ni  8.259963 13.504276  9.970802
Ni 10.054386 11.678770  9.972677
Ni 10.078243 13.487023  8.152651
Ni 11.855408 13.485709  9.965060
Ni 13.631169 11.654419 10.002425
Ni 13.665454 13.520420  8.167363
Ni  8.268475  2.646453  9.948002
Ni 10.087454  0.840101  9.989271
Ni 10.050730  2.669156  8.138026
Ni 11.826248  2.667859  9.954145
Ni 13.632754  0.872465  9.925000
Ni 13.635773  2.677494  8.157851
Ni  8.238641  6.281074 13.619061
Ni 10.033574  4.467688 13.590168
Ni 10.017092  6.288141 11.763188
Ni 11.818307  6.273217 13.588969
Ni 13.642997  4.480414 13.570277
Ni 13.612244  6.282934 11.799722
Ni  8.228589  9.873274 13.604408
Ni 10.035855  8.084394 13.597127
Ni 10.021758  9.869613 11.769742
Ni 11.858520  9.874185 13.574709
Ni 13.650266  8.066833 13.572312
Ni 13.650011  9.854833 11.742999
Ni  8.242053 13.516204 13.559374
Ni 10.060562 11.681521 13.564591
Ni 10.058803 13.495724 11.772911
Ni 11.847835 13.499579 13.571400
Ni 13.671747 11.701692 13.541584
Ni 13.642448 13.470594 11.751568
Ni  8.228691  2.654404 13.580377
Ni 10.049671  0.850898 13.569229
Ni 10.045893  2.659108 11.772673
Ni 11.846424  2.669182 13.576062
Ni 13.636853  0.842210 13.581543
Ni 13.602650  2.704047 11.758237
Ni  1.011642  6.282629  2.695244
Ni  2.786824  4.436514  2.703955
Ni  0.947687  4.488495  0.886375
Ni  4.551628  6.254916  2.714208
Ni  6.378348  4.430347  2.726116
Ni  4.592902  8.042358  0.925696
Ni  4.635079  4.411347  0.917833
Ni  0.980539  8.053862  0.912183
Ni  0.956157  9.902900  2.714694
Ni  4.605419  9.900668  2.661652
Ni  6.376872  8.047098  2.717200
Ni  6.431300  9.922035  0.960116
Ni  2.751679  9.911151  0.887981
Ni  0.941405 13.476685  2.718298
Ni  4.537324 11.753362  0.911468
Ni  2.748634 13.529644  0.861121
Ni  4.557292 13.598026  2.697950
Ni  4.611230 11.738031  4.479029
Ni  6.433681 13.539700  0.916038
Ni  0.970057  2.674724  2.693422
Ni  4.563744  0.903120  0.903772
Ni  0.986554  0.849517  0.847324
Ni  4.571989  2.611168  2.709537
Ni  6.413190  0.828292  2.692154
Ni  6.421556  2.634658  0.955512
Ni  2.779223  0.891770 13.472631
Ni  0.956783  6.244182  6.307612
Ni  2.825019  4.431953  6.341553
Ni  0.952157  4.446702  4.493210
Ni  6.438728  4.337240  6.301533
Ni  6.406198  6.244191  4.472996
Ni  4.605760  4.424401  4.517818
Ni  1.054332  9.906229  6.369814
Ni  2.823161  7.988314  6.285245
Ni  2.808866  9.887357  4.522383
Ni  1.016245  8.080792  4.523156
Ni  4.585423  9.843304  6.324057
Ni  6.453869  8.118801  6.298455
Ni  4.530333  7.999367  4.503341
Ni  0.930590  0.891647  4.499566
Ni  0.979360 11.687903  4.547458
Ni  4.553525 13.584401  6.357821
Ni  6.406721 13.548548  4.537090
Ni  2.752034 13.538895  4.535271
Ni  2.749674  0.926170  6.392278
Ni  2.783987  2.660746  4.489717
Ni  4.613310  2.643048  6.323394
Ni  6.406277  2.558825  4.521513
Ni  0.967794  4.465854  8.131392
Ni  6.468640  4.367422  9.978668
Ni  4.685220  4.449376  8.118019
Ni  1.022840  9.797183  9.965214
Ni  0.963670  8.016278  8.130849
Ni  2.901556  7.872776 10.041578
Ni  6.393541  8.127496  9.983032
Ni  6.444692  9.913764  8.096292
Ni  4.690503  8.048335  8.108683
Ni  0.959557 13.515283  9.966238
Ni  2.782266 11.613831  9.905831
Ni  2.697724 13.475378  8.096716
Ni  4.594685 13.482182  9.917937
Ni  6.431912 11.733449  9.963632
Ni  6.410322 13.504855  8.183131
Ni  4.517157 11.686156  8.160096
Ni  0.960328  2.715219  9.962289
Ni  2.760174  0.830865 10.010922
Ni  0.980280  0.911459  8.204894
Ni  4.654516  2.661255  9.966863
Ni  6.409949  0.839505  9.953585
Ni  6.426492  2.626511  8.160292
Ni  4.566256  0.835664  8.201939
Ni  0.940113  6.274666 13.584517
Ni  2.820183  4.351685 13.546871
Ni  2.824902  4.677927  9.933652
Ni  0.942927  4.481179 11.762427
Ni  4.650248  6.212857 13.583465
Ni  6.445383  4.486436 13.577666
Ni  6.456974  6.255662 11.783231
Ni  4.672809  4.466221 11.745193
Ni  0.970995 11.716250  0.890652
Ni  2.827632  8.085223 13.559431
Ni  2.893420  9.859676 11.723452
Ni  1.002472  8.047883 11.761998
Ni  6.394015  6.249843  0.938210
Ni  6.394866  9.902620 11.834773
Ni  6.411947  8.067282 13.638637
Ni  0.988222 13.507317 13.512767
Ni  2.768095 11.731054 13.544668
Ni  0.986399 11.641268 11.711904
Ni  6.433132 11.716468 13.598318
Ni  6.419892 13.506372 11.735495
Ni  4.638761 11.749736 11.777413
Ni  0.941495  2.665565 13.521455
Ni  4.631925  0.827733 11.730903
Ni  6.447010  0.839942 13.557581
Ni  6.472010  2.633509 11.739223
%ENDBLOCK POSITIONS_ABS

