#######################################################
#CASTEP cell file: /home/u2093113/Documents/kART/CASTEP/castep.cell
#Created using the Atomic Simulation Environment (ASE)#
#######################################################

%BLOCK LATTICE_CART
14.464828  0.000000  0.000000
 0.000000 14.464828  0.000000
 0.000000  0.000000 14.464828
%ENDBLOCK LATTICE_CART

%BLOCK POSITIONS_ABS
Al  8.223426  4.456824  0.928446
Al 11.845967  4.470373  0.913992
Al  8.220732  8.092505  0.970161
Al 11.857095  8.085402  0.926379
Al  8.308751 11.693575  0.846000
Al 11.880728 11.685940  0.894362
Al  8.247513  0.858987  0.912794
Al 11.859596  0.857266  0.892296
Al  8.221097  4.436841  4.527686
Al 11.855266  4.475561  4.505932
Al  8.282592  8.001517  4.509417
Al 11.864149  8.079347  4.519678
Al  8.403997 11.808717  4.533037
Al 11.877823 11.683770  4.522693
Al  8.308754  0.822032  4.451531
Al 11.885981  0.865551  4.501309
Al  8.240131  4.422089  8.115538
Al 11.836866  4.488478  8.131113
Al  8.218365  8.115325  8.110118
Al 11.832974  8.074901  8.124061
Al  8.301904 11.706247  8.199170
Al 11.898369 11.676908  8.149774
Al  8.352024  0.835306  8.239758
Al 11.845832  0.851525  8.151161
Al  8.250898  4.472223 11.761877
Al 11.813295  4.491927 11.764706
Al  8.202125  8.074988 11.767636
Al 11.832421  8.078275 11.763355
Al  8.229056 11.691415 11.775295
Al 11.841556 11.668119 11.778424
Al  8.244713  0.848941 11.751736
Al 11.874954  0.847807 11.778339
Al  4.767141  2.657428 13.543968
Al  0.824707  0.873550 11.746776
Al  2.799751  2.759460 11.633219
Al  4.667609 13.543139 13.632474
Al  2.781210 13.415084 11.673368
Al  4.610718  9.984824 13.689694
Al  0.994684  9.875112 13.547452
Al  2.839804  2.679807  8.261821
Al  0.863158 11.676266  8.274460
Al  4.732590  9.963910  9.950327
Al  2.777130  9.680933  8.158074
Al  4.817922  6.180453  9.851153
Al  4.707449  8.034640 11.865335
Al  2.822850  6.264178  7.959028
Al  0.830374  6.270070  9.937864
Al  4.547611  0.849051  4.519979
Al  6.376247  0.838845  6.442356
Al  2.642065  0.783652  2.684095
Al  0.904026  2.665484  6.269931
Al  6.252148 11.806823  6.381046
Al  0.892669 13.644098  6.280338
Al  2.884460 11.708234  6.233277
Al  6.241632  9.801618  4.488751
Al  5.588062  6.232939  7.106517
Al  2.786086  6.154226  4.586626
Al  2.704546  2.724442  0.883383
Al  6.290420 11.823769  2.651796
Al  2.764913 11.719599  2.703123
Al  2.808017  6.179638  0.828336
Al  2.746650  6.170942 11.930514
Al  2.780471  8.189753  2.702237
Ni  8.198559  6.244988  2.724036
Ni 10.040964  4.459874  2.721267
Ni 10.035814  6.280018  0.941584
Ni 11.864106  6.279121  2.720012
Ni 13.668111  4.483110  2.699523
Ni 13.649301  6.291328  0.919911
Ni  8.176171  9.975029  2.827915
Ni 10.038470  8.087405  2.730177
Ni 10.047057  9.877623  0.934592
Ni 11.868909  9.878655  2.726863
Ni 13.691502  8.078880  2.723826
Ni 13.678000  9.882775  0.920130
Ni  8.251853 13.464528  2.702998
Ni 10.080672 11.695062  2.697883
Ni 10.050580 13.507419  0.896965
Ni 11.869839 13.507812  2.681817
Ni 13.659152 11.687257  2.709033
Ni 13.671829 13.495614  0.883822
Ni  8.227612  2.654904  2.730617
Ni 10.075990  0.850517  2.691539
Ni 10.034094  2.663599  0.905645
Ni 11.855962  2.667784  2.686289
Ni 13.679777  0.859031  2.675857
Ni 13.667661  2.667235  0.896722
Ni  8.193207  6.249053  6.337361
Ni 10.033929  4.464660  6.319417
Ni 10.046704  6.252965  4.514131
Ni 11.834476  6.287378  6.301402
Ni 13.653484  4.496097  6.309330
Ni 13.681407  6.279671  4.505163
Ni  8.177668  9.998542  6.215352
Ni 10.009390  8.087420  6.318858
Ni 10.058903  9.890936  4.525687
Ni 11.859989  9.865949  6.330325
Ni 13.681437  8.078814  6.318580
Ni 13.687842  9.884932  4.534047
Ni  8.245673 13.525270  6.360085
Ni 10.087801 11.704584  6.350547
Ni 10.116426 13.534000  4.520764
Ni 11.891459 13.488866  6.337062
Ni 13.701377 11.680690  6.335910
Ni 13.648850 13.508489  4.483090
Ni  8.250023  2.563163  6.331998
Ni 10.092892  0.835192  6.330833
Ni 10.058921  2.651674  4.521493
Ni 11.855669  2.692293  6.324530
Ni 13.605123  0.886247  6.347565
Ni 13.627888  2.675011  4.471320
Ni  8.179475  6.268047  9.887005
Ni 10.029053  4.481951  9.938769
Ni 10.009852  6.279064  8.121821
Ni 11.845190  6.286810  9.943469
Ni 13.624859  4.449420  9.945360
Ni 13.619938  6.274422  8.089127
Ni  8.199072  9.888545  9.951663
Ni 10.004501  8.078435  9.934714
Ni 10.026988  9.889887  8.120364
Ni 11.824514  9.868271  9.942979
Ni 13.641395  8.102821  9.945616
Ni 13.667563  9.842039  8.141542
Ni  8.257025 13.505984  9.965915
Ni 10.054591 11.678151  9.972207
Ni 10.081296 13.488921  8.152054
Ni 11.855232 13.488527  9.968191
Ni 13.632152 11.659170 10.006884
Ni 13.661837 13.523399  8.166884
Ni  8.263932  2.650508  9.944799
Ni 10.087258  0.843732  9.988238
Ni 10.068995  2.659478  8.133596
Ni 11.831139  2.670778  9.955712
Ni 13.628026  0.871736  9.929380
Ni 13.633032  2.678299  8.153136
Ni  8.234281  6.284248 13.611227
Ni 10.027655  4.475831 13.583256
Ni 10.016730  6.291130 11.755011
Ni 11.821229  6.276231 13.592047
Ni 13.644632  4.484139 13.573672
Ni 13.618583  6.283500 11.796407
Ni  8.224889  9.866889 13.596633
Ni 10.031224  8.082508 13.591248
Ni 10.020415  9.866159 11.765059
Ni 11.856973  9.871204 13.573843
Ni 13.654151  8.066193 13.574481
Ni 13.650330  9.854189 11.745429
Ni  8.237329 13.516290 13.556500
Ni 10.056663 11.679191 13.558307
Ni 10.053716 13.496627 11.770137
Ni 11.845436 13.500304 13.569489
Ni 13.671521 11.699987 13.540950
Ni 13.639628 13.472422 11.756297
Ni  8.223091  2.664761 13.571089
Ni 10.043202  0.854950 13.563964
Ni 10.043398  2.666570 11.768396
Ni 11.843016  2.675741 13.576516
Ni 13.636409  0.846272 13.582335
Ni 13.601200  2.707814 11.762029
Ni  1.032365  6.285828  2.708487
Ni  2.796527  4.444321  2.716532
Ni  0.954315  4.492407  0.893413
Ni  4.558757  6.259189  2.742071
Ni  6.375738  4.437662  2.740362
Ni  4.596259  8.041442  0.930285
Ni  4.638668  4.419726  0.922614
Ni  0.989864  8.054586  0.916760
Ni  0.962097  9.904162  2.711956
Ni  4.610304  9.903070  2.665720
Ni  6.375201  8.043073  2.736247
Ni  6.434684  9.917543  0.963131
Ni  2.758848  9.907052  0.892631
Ni  0.939168 13.477517  2.708165
Ni  4.543108 11.751690  0.909476
Ni  2.752195 13.529718  0.856435
Ni  4.560494 13.598775  2.693198
Ni  4.611209 11.745090  4.478344
Ni  6.435398 13.539359  0.911806
Ni  0.970957  2.677503  2.688703
Ni  4.566743  0.906236  0.904956
Ni  0.987805  0.853469  0.843989
Ni  4.577005  2.613908  2.709964
Ni  6.415360  0.830194  2.689294
Ni  6.421890  2.642571  0.956282
Ni  2.782926  0.897630 13.474726
Ni  0.969362  6.246695  6.300014
Ni  2.804674  4.379127  6.337474
Ni  0.964148  4.454465  4.488208
Ni  6.427927  4.340563  6.309189
Ni  6.371034  6.243340  4.536898
Ni  4.605974  4.405041  4.530313
Ni  1.045447  9.922345  6.364426
Ni  2.802847  8.040534  6.281374
Ni  2.808231  9.899594  4.516498
Ni  1.019166  8.083396  4.520139
Ni  4.585518  9.855732  6.325662
Ni  6.440287  8.123671  6.305580
Ni  4.533043  8.014512  4.526396
Ni  0.925691  0.887768  4.488531
Ni  0.978125 11.695225  4.538853
Ni  4.550379 13.586778  6.353262
Ni  6.410681 13.550932  4.532052
Ni  2.749132 13.540499  4.527019
Ni  2.741318  0.922622  6.384940
Ni  2.782607  2.647547  4.480372
Ni  4.612640  2.634092  6.324025
Ni  6.405720  2.556377  4.525442
Ni  0.964614  4.467730  8.122253
Ni  6.456477  4.405593  9.934136
Ni  4.653748  4.443625  8.111450
Ni  1.017534  9.803601  9.966938
Ni  0.974186  8.017117  8.124292
Ni  2.884918  7.880719 10.030765
Ni  6.378297  8.086596  9.936410
Ni  6.439794  9.925204  8.088223
Ni  4.650074  8.059568  8.095339
Ni  0.956567 13.519481  9.970469
Ni  2.779101 11.619705  9.908795
Ni  2.693505 13.479171  8.097653
Ni  4.592162 13.487219  9.920219
Ni  6.426650 11.734842  9.960074
Ni  6.407804 13.507484  8.182199
Ni  4.512285 11.695343  8.160633
Ni  0.950011  2.713118  9.961562
Ni  2.756139  0.831462 10.013990
Ni  0.972519  0.907636  8.203027
Ni  4.649092  2.667514  9.957350
Ni  6.405391  0.842432  9.949761
Ni  6.422728  2.619789  8.154423
Ni  4.560074  0.833205  8.199715
Ni  0.939503  6.274710 13.589576
Ni  2.819694  4.356474 13.550612
Ni  2.797272  4.660739  9.923122
Ni  0.939789  4.482708 11.761577
Ni  4.650757  6.215926 13.579769
Ni  6.443428  4.491726 13.573269
Ni  6.453846  6.258002 11.770431
Ni  4.664965  4.461612 11.746338
Ni  0.974634 11.713749  0.886981
Ni  2.827198  8.085145 13.560854
Ni  2.893107  9.857611 11.717716
Ni  1.000715  8.046952 11.760122
Ni  6.391997  6.253178  0.941495
Ni  6.392278  9.890164 11.816116
Ni  6.410424  8.066915 13.632932
Ni  0.989737 13.508033 13.513615
Ni  2.773129 11.729497 13.543726
Ni  0.986700 11.645197 11.716141
Ni  6.433005 11.709372 13.591285
Ni  6.415334 13.507002 11.733651
Ni  4.637040 11.746202 11.774719
Ni  0.942845  2.671198 13.525325
Ni  4.628323  0.835075 11.727791
Ni  6.443871  0.847973 13.552024
Ni  6.466297  2.649573 11.723381
%ENDBLOCK POSITIONS_ABS

