#######################################################
#CASTEP cell file: /home/u2093113/Documents/kART/CASTEP/castep.cell
#Created using the Atomic Simulation Environment (ASE)#
#######################################################

%BLOCK LATTICE_CART
14.464828  0.000000  0.000000
 0.000000 14.464828  0.000000
 0.000000  0.000000 14.464828
%ENDBLOCK LATTICE_CART

%BLOCK POSITIONS_ABS
Al  8.216577  4.464993  0.929429
Al 11.843122  4.478648  0.912363
Al  8.214575  8.089028  0.972685
Al 11.855887  8.084336  0.925040
Al  8.305755 11.689134  0.840882
Al 11.878115 11.683899  0.888591
Al  8.244254  0.864111  0.906511
Al 11.856977  0.861328  0.885299
Al  8.216916  4.443385  4.538129
Al 11.861568  4.477466  4.494044
Al  8.276515  8.001267  4.521365
Al 11.872969  8.084234  4.511991
Al  8.408686 11.813470  4.527510
Al 11.880790 11.685663  4.514207
Al  8.311992  0.820280  4.445889
Al 11.887210  0.867694  4.488998
Al  8.299718  4.371762  8.101380
Al 11.846738  4.488430  8.124641
Al  8.270725  8.172285  8.090385
Al 11.845494  8.079562  8.119426
Al  8.302977 11.705959  8.196015
Al 11.905263 11.682942  8.149789
Al  8.353508  0.838979  8.236445
Al 11.854069  0.850137  8.149928
Al  8.242658  4.484245 11.742325
Al 11.819239  4.497805 11.767583
Al  8.195304  8.068907 11.746341
Al 11.838031  8.076066 11.764221
Al  8.224120 11.689545 11.770684
Al 11.842132 11.667968 11.778981
Al  8.237068  0.852778 11.748375
Al 11.870704  0.852648 11.781448
Al  4.769626  2.660705 13.545072
Al  0.824611  0.876132 11.751599
Al  2.795289  2.760165 11.632460
Al  4.671697 13.545110 13.631002
Al  2.781580 13.419044 11.676727
Al  4.612708  9.981248 13.689052
Al  1.001029  9.874798 13.545714
Al  2.822621  2.659453  8.257775
Al  0.857850 11.687220  8.275626
Al  4.736197  9.957179  9.937502
Al  2.762148  9.708648  8.161169
Al  4.708058  6.165730  9.923615
Al  4.702137  8.042352 11.864477
Al  2.876470  6.254494  7.880019
Al  0.839956  6.272393  9.918015
Al  4.549510  0.845716  4.514449
Al  6.378227  0.834301  6.439827
Al  2.643654  0.782792  2.676359
Al  0.892871  2.657131  6.261121
Al  6.254446 11.816146  6.381054
Al  0.887037 13.647012  6.274173
Al  2.880764 11.716219  6.228867
Al  6.246437  9.812553  4.492059
Al  6.288974  6.240155  7.842269
Al  2.844799  6.156532  4.645615
Al  2.711455  2.732585  0.889071
Al  6.292780 11.826069  2.649448
Al  2.766725 11.725343  2.696391
Al  2.815380  6.181748  0.834392
Al  2.732784  6.172731 11.933106
Al  2.793629  8.183151  2.715077
Ni  8.181965  6.247248  2.744910
Ni 10.034947  4.464444  2.719542
Ni 10.024702  6.284268  0.944106
Ni 11.866960  6.282889  2.715604
Ni 13.674334  4.487947  2.696030
Ni 13.658250  6.293124  0.925825
Ni  8.176291  9.973434  2.828836
Ni 10.032727  8.088764  2.731138
Ni 10.041746  9.874222  0.930170
Ni 11.870493  9.879276  2.720058
Ni 13.697310  8.081133  2.720565
Ni 13.681280  9.880293  0.916144
Ni  8.252948 13.466145  2.696735
Ni 10.079757 11.696087  2.689466
Ni 10.045833 13.507208  0.890010
Ni 11.868880 13.508275  2.670858
Ni 13.660348 11.687318  2.698864
Ni 13.671254 13.496742  0.877161
Ni  8.225315  2.659239  2.732036
Ni 10.074754  0.853268  2.681661
Ni 10.027230  2.670684  0.900866
Ni 11.856201  2.673089  2.678534
Ni 13.676417  0.860839  2.665247
Ni 13.667243  2.672856  0.893923
Ni  8.223616  6.252210  6.349940
Ni 10.053189  4.463013  6.306483
Ni 10.052253  6.256741  4.509426
Ni 11.845307  6.290062  6.290522
Ni 13.657416  4.499490  6.298301
Ni 13.687959  6.283085  4.499137
Ni  8.185013 10.002293  6.205690
Ni 10.030879  8.093440  6.307122
Ni 10.063266  9.894804  4.520105
Ni 11.869951  9.871859  6.323461
Ni 13.688556  8.081594  6.313730
Ni 13.690523  9.887714  4.526393
Ni  8.252146 13.526327  6.357308
Ni 10.094354 11.708705  6.345637
Ni 10.120464 13.535457  4.513329
Ni 11.892938 13.491253  6.330787
Ni 13.697995 11.687608  6.331242
Ni 13.644777 13.510202  4.470906
Ni  8.254741  2.559956  6.320906
Ni 10.098903  0.836868  6.325446
Ni 10.061077  2.652795  4.513127
Ni 11.861558  2.692126  6.312619
Ni 13.601057  0.885292  6.337942
Ni 13.630893  2.678816  4.460372
Ni  8.191723  6.271065  9.838058
Ni 10.040401  4.484211  9.936998
Ni 10.040637  6.282270  8.113537
Ni 11.852155  6.288346  9.941910
Ni 13.626751  4.453013  9.942998
Ni 13.624848  6.276433  8.081889
Ni  8.194488  9.887873  9.945881
Ni 10.015699  8.082075  9.929920
Ni 10.048728  9.905017  8.116777
Ni 11.832636  9.869676  9.943220
Ni 13.647138  8.101668  9.943138
Ni 13.672005  9.843693  8.139078
Ni  8.254088 13.507693  9.961029
Ni 10.054796 11.677532  9.971738
Ni 10.084348 13.490819  8.151458
Ni 11.855057 13.491346  9.971321
Ni 13.633135 11.663922 10.011342
Ni 13.658221 13.526379  8.166405
Ni  8.259388  2.654562  9.941596
Ni 10.087062  0.847364  9.987206
Ni 10.087260  2.649800  8.129166
Ni 11.836031  2.673698  9.957279
Ni 13.623299  0.871007  9.933760
Ni 13.630291  2.679105  8.148421
Ni  8.229920  6.287422 13.603394
Ni 10.021736  4.483973 13.576345
Ni 10.016368  6.294118 11.746834
Ni 11.824152  6.279245 13.595125
Ni 13.646268  4.487864 13.577068
Ni 13.624922  6.284066 11.793092
Ni  8.221189  9.860503 13.588857
Ni 10.026592  8.080622 13.585369
Ni 10.019072  9.862705 11.760377
Ni 11.855426  9.868222 13.572976
Ni 13.658037  8.065553 13.576649
Ni 13.650649  9.853545 11.747859
Ni  8.232605 13.516375 13.553625
Ni 10.052763 11.676862 13.552022
Ni 10.048629 13.497529 11.767363
Ni 11.843037 13.501028 13.567578
Ni 13.671295 11.698281 13.540316
Ni 13.636809 13.474250 11.761026
Ni  8.217492  2.675118 13.561802
Ni 10.036733  0.859001 13.558698
Ni 10.040902  2.674033 11.764120
Ni 11.839608  2.682300 13.576970
Ni 13.635964  0.850334 13.583127
Ni 13.599750  2.711581 11.765821
Ni  1.053087  6.289028  2.721730
Ni  2.806230  4.452127  2.729110
Ni  0.960943  4.496318  0.900450
Ni  4.565885  6.263462  2.769934
Ni  6.373128  4.444977  2.754609
Ni  4.599616  8.040525  0.934875
Ni  4.642257  4.428106  0.927396
Ni  0.999189  8.055309  0.921337
Ni  0.968037  9.905424  2.709217
Ni  4.615190  9.905473  2.669788
Ni  6.373530  8.039048  2.755294
Ni  6.438067  9.913050  0.966145
Ni  2.766018  9.902954  0.897280
Ni  0.936931 13.478350  2.698032
Ni  4.548891 11.750018  0.907484
Ni  2.755756 13.529793  0.851749
Ni  4.563695 13.599523  2.688447
Ni  4.611189 11.752149  4.477659
Ni  6.437115 13.539018  0.907573
Ni  0.971858  2.680281  2.683985
Ni  4.569741  0.909352  0.906140
Ni  0.989056  0.857421  0.840654
Ni  4.582021  2.616647  2.710392
Ni  6.417531  0.832097  2.686433
Ni  6.422225  2.650484  0.957051
Ni  2.786628  0.903489 13.476821
Ni  0.981941  6.249208  6.292416
Ni  2.784329  4.326301  6.333395
Ni  0.976140  4.462228  4.483207
Ni  6.417126  4.343885  6.316845
Ni  6.335871  6.242489  4.600801
Ni  4.606188  4.385682  4.542808
Ni  1.036561  9.938461  6.359038
Ni  2.782533  8.092753  6.277503
Ni  2.807597  9.911831  4.510614
Ni  1.022087  8.085999  4.517121
Ni  4.585613  9.868159  6.327266
Ni  6.426705  8.128542  6.312704
Ni  4.535754  8.029656  4.549451
Ni  0.920792  0.883889  4.477496
Ni  0.976890 11.702548  4.530248
Ni  4.547232 13.589155  6.348704
Ni  6.414641 13.553316  4.527014
Ni  2.746231 13.542103  4.518768
Ni  2.732962  0.919073  6.377602
Ni  2.781227  2.634348  4.471027
Ni  4.611970  2.625137  6.324656
Ni  6.405163  2.553928  4.529370
Ni  0.961433  4.469605  8.113115
Ni  6.444314  4.443764  9.889604
Ni  4.622276  4.437874  8.104881
Ni  1.012228  9.810018  9.968661
Ni  0.984701  8.017957  8.117734
Ni  2.868281  7.888662 10.019952
Ni  6.363054  8.045697  9.889788
Ni  6.434896  9.936645  8.080155
Ni  4.609644  8.070801  8.081995
Ni  0.953577 13.523678  9.974701
Ni  2.775936 11.625579  9.911760
Ni  2.689287 13.482964  8.098589
Ni  4.589639 13.492255  9.922501
Ni  6.421388 11.736234  9.956515
Ni  6.405285 13.510113  8.181267
Ni  4.507414 11.704530  8.161170
Ni  0.939693  2.711018  9.960834
Ni  2.752104  0.832058 10.017058
Ni  0.964758  0.903814  8.201159
Ni  4.643668  2.673772  9.947837
Ni  6.400833  0.845358  9.945937
Ni  6.418963  2.613067  8.148555
Ni  4.553893  0.830747  8.197491
Ni  0.938894  6.274755 13.594634
Ni  2.819204  4.361263 13.554353
Ni  2.769641  4.643552  9.912593
Ni  0.936650  4.484236 11.760726
Ni  4.651266  6.218995 13.576073
Ni  6.441474  4.497016 13.568873
Ni  6.450718  6.260341 11.757632
Ni  4.657121  4.457004 11.747484
Ni  0.978273 11.711249  0.883311
Ni  2.826765  8.085066 13.562277
Ni  2.892795  9.855546 11.711981
Ni  0.998958  8.046020 11.758245
Ni  6.389980  6.256513  0.944780
Ni  6.389690  9.877708 11.797460
Ni  6.408902  8.066548 13.627227
Ni  0.991252 13.508748 13.514463
Ni  2.778162 11.727940 13.542785
Ni  0.987001 11.649127 11.720377
Ni  6.432879 11.702277 13.584251
Ni  6.410777 13.507633 11.731807
Ni  4.635319 11.742668 11.772025
Ni  0.944195  2.676832 13.529195
Ni  4.624722  0.842418 11.724679
Ni  6.440732  0.856003 13.546467
Ni  6.460584  2.665636 11.707539
%ENDBLOCK POSITIONS_ABS

