%block lattice_abc 
  14.46482773 14.46482773 14.46482773 #lattice params 
 90.0  90.0  90.0 
     %endblock lattice_abc 
     fix_all_cell : true 
     %BLOCK POSITIONS_ABS 
Al  8.230275  4.448654  0.927463
 Al 11.848812  4.462098  0.915621
 Al  8.226889  8.095981  0.967638
 Al 11.858302  8.086468  0.927719
 Al  8.311748 11.698017  0.851119
 Al 11.883341 11.687982  0.900132
 Al  8.250772  0.853863  0.919076
 Al 11.862214  0.853205  0.899292
 Al  8.225279  4.430297  4.517243
 Al 11.848963  4.473656  4.517820
 Al  8.288669  8.001767  4.497470
 Al 11.855328  8.074461  4.527365
 Al  8.399308 11.803963  4.538564
 Al 11.874855 11.681877  4.531179
 Al  8.305516  0.823784  4.457172
 Al 11.884751  0.863408  4.513620
 Al  8.180543  4.472416  8.129697
 Al 11.826993  4.488525  8.137585
 Al  8.166006  8.058365  8.129851
 Al 11.820453  8.070241  8.128696
 Al  8.300832 11.706535  8.202325
 Al 11.891475 11.670874  8.149759
 Al  8.350540  0.831632  8.243070
 Al 11.837596  0.852913  8.152394
 Al  8.259139  4.460201 11.781429
 Al 11.807350  4.486049 11.761830
 Al  8.208947  8.081069 11.788931
 Al 11.826810  8.080483 11.762490
 Al  8.233991 11.693285 11.779906
 Al 11.840979 11.668270 11.777866
 Al  8.252359  0.845105 11.755096
 Al 11.879204  0.842966 11.775230
 Al  4.764655  2.654152 13.542864
 Al  0.824803  0.870968 11.741952
 Al  2.804213  2.758754 11.633977
 Al  4.663520 13.541167 13.633946
 Al  2.780839 13.411124 11.670008
 Al  4.608728  9.988400 13.690337
 Al  0.988339  9.875426 13.549190
 Al  2.856987  2.700161  8.265867
 Al  0.868466 11.665311  8.273293
 Al  4.728982  9.970640  9.963151
 Al  2.792112  9.653219  8.154978
 Al  4.927786  6.195177  9.778692
 Al  4.712761  8.026929 11.866193
 Al  2.769230  6.273862  8.038036
 Al  0.820792  6.267747  9.957714
 Al  4.545712  0.852386  4.525510
 Al  6.374267  0.843390  6.444885
 Al  2.640475  0.784513  2.691831
 Al  0.915181  2.673837  6.278740
 Al  6.249850 11.797499  6.381037
 Al  0.898301 13.641184  6.286504
 Al  2.888156 11.700249  6.237687
 Al  6.236827  9.790682  4.485443
 Al  4.887151  6.225724  6.370765
 Al  2.727374  6.151920  4.527636
 Al  2.697638  2.716299  0.877694
 Al  6.288060 11.821468  2.654144
 Al  2.763101 11.713855  2.709855
 Al  2.800654  6.177527  0.822280
 Al  2.760516  6.169154 11.927922
 Al  2.767313  8.196354  2.689397
 Ni  8.215153  6.242728  2.703161
 Ni 10.046981  4.455303  2.722991
 Ni 10.046925  6.275767  0.939063
 Ni 11.861252  6.275353  2.724420
 Ni 13.661887  4.478273  2.703016
 Ni 13.640352  6.289531  0.913996
 Ni  8.176051  9.976623  2.826994
 Ni 10.044212  8.086045  2.729217
 Ni 10.052367  9.881024  0.939015
 Ni 11.867325  9.878034  2.733669
 Ni 13.685694  8.076626  2.727088
 Ni 13.674720  9.885257  0.924115
 Ni  8.250758 13.462912  2.709260
 Ni 10.081586 11.694038  2.706301
 Ni 10.055327 13.507630  0.903921
 Ni 11.870799 13.507349  2.692776
 Ni 13.657956 11.687196  2.719201
 Ni 13.672403 13.494486  0.890483
 Ni  8.229909  2.650569  2.729199
 Ni 10.077225  0.847766  2.701417
 Ni 10.040959  2.656513  0.910424
 Ni 11.855723  2.662479  2.694044
 Ni 13.683137  0.857222  2.686467
 Ni 13.668079  2.661614  0.899521
 Ni  8.162798  6.245897  6.324783
 Ni 10.014669  4.466307  6.332350
 Ni 10.041154  6.249189  4.518835
 Ni 11.823644  6.284694  6.312282
 Ni 13.649551  4.492704  6.320358
 Ni 13.674856  6.276256  4.511190
 Ni  8.170322  9.994792  6.225015
 Ni  9.987901  8.081401  6.330593
 Ni 10.054541  9.887067  4.531270
 Ni 11.850027  9.860039  6.337188
 Ni 13.674318  8.076034  6.323430
 Ni 13.685160  9.882150  4.541701
 Ni  8.239199 13.524214  6.362863
 Ni 10.081248 11.700463  6.355457
 Ni 10.112388 13.532543  4.528200
 Ni 11.889980 13.486480  6.343337
 Ni 13.704758 11.673772  6.340578
 Ni 13.652923 13.506776  4.495274
 Ni  8.245305  2.566370  6.343090
 Ni 10.086882  0.833515  6.336219
 Ni 10.056764  2.650552  4.529860
 Ni 11.849781  2.692461  6.336440
 Ni 13.609189  0.887203  6.357189
 Ni 13.624882  2.671207  4.482267
 Ni  8.167227  6.265029  9.935953
 Ni 10.017705  4.479692  9.940540
 Ni  9.979067  6.275858  8.130106
 Ni 11.838225  6.285273  9.945029
 Ni 13.622966  4.445828  9.947722
 Ni 13.615027  6.272411  8.096365
 Ni  8.203656  9.889216  9.957445
 Ni  9.993303  8.074796  9.939508
 Ni 10.005248  9.874757  8.123952
 Ni 11.816391  9.866866  9.942737
 Ni 13.635652  8.103973  9.948094
 Ni 13.663121  9.840384  8.144006
 Ni  8.259963 13.504276  9.970802
 Ni 10.054386 11.678770  9.972677
 Ni 10.078243 13.487023  8.152651
 Ni 11.855408 13.485709  9.965060
 Ni 13.631169 11.654419 10.002425
 Ni 13.665454 13.520420  8.167363
 Ni  8.268475  2.646453  9.948002
 Ni 10.087454  0.840101  9.989271
 Ni 10.050730  2.669156  8.138026
 Ni 11.826248  2.667859  9.954145
 Ni 13.632754  0.872465  9.925000
 Ni 13.635773  2.677494  8.157851
 Ni  8.238641  6.281074 13.619061
 Ni 10.033574  4.467688 13.590168
 Ni 10.017092  6.288141 11.763188
 Ni 11.818307  6.273217 13.588969
 Ni 13.642997  4.480414 13.570277
 Ni 13.612244  6.282934 11.799722
 Ni  8.228589  9.873274 13.604408
 Ni 10.035855  8.084394 13.597127
 Ni 10.021758  9.869613 11.769742
 Ni 11.858520  9.874185 13.574709
 Ni 13.650266  8.066833 13.572312
 Ni 13.650011  9.854833 11.742999
 Ni  8.242053 13.516204 13.559374
 Ni 10.060562 11.681521 13.564591
 Ni 10.058803 13.495724 11.772911
 Ni 11.847835 13.499579 13.571400
 Ni 13.671747 11.701692 13.541584
 Ni 13.642448 13.470594 11.751568
 Ni  8.228691  2.654404 13.580377
 Ni 10.049671  0.850898 13.569229
 Ni 10.045893  2.659108 11.772673
 Ni 11.846424  2.669182 13.576062
 Ni 13.636853  0.842210 13.581543
 Ni 13.602650  2.704047 11.758237
 Ni  1.011642  6.282629  2.695244
 Ni  2.786824  4.436514  2.703955
 Ni  0.947687  4.488495  0.886375
 Ni  4.551628  6.254916  2.714208
 Ni  6.378348  4.430347  2.726116
 Ni  4.592902  8.042358  0.925696
 Ni  4.635079  4.411347  0.917833
 Ni  0.980539  8.053862  0.912183
 Ni  0.956157  9.902900  2.714694
 Ni  4.605419  9.900668  2.661652
 Ni  6.376872  8.047098  2.717200
 Ni  6.431300  9.922035  0.960116
 Ni  2.751679  9.911151  0.887981
 Ni  0.941405 13.476685  2.718298
 Ni  4.537324 11.753362  0.911468
 Ni  2.748634 13.529644  0.861121
 Ni  4.557292 13.598026  2.697950
 Ni  4.611230 11.738031  4.479029
 Ni  6.433681 13.539700  0.916038
 Ni  0.970057  2.674724  2.693422
 Ni  4.563744  0.903120  0.903772
 Ni  0.986554  0.849517  0.847324
 Ni  4.571989  2.611168  2.709537
 Ni  6.413190  0.828292  2.692154
 Ni  6.421556  2.634658  0.955512
 Ni  2.779223  0.891770 13.472631
 Ni  0.956783  6.244182  6.307612
 Ni  2.825019  4.431953  6.341553
 Ni  0.952157  4.446702  4.493210
 Ni  6.438728  4.337240  6.301533
 Ni  6.406198  6.244191  4.472996
 Ni  4.605760  4.424401  4.517818
 Ni  1.054332  9.906229  6.369814
 Ni  2.823161  7.988314  6.285245
 Ni  2.808866  9.887357  4.522383
 Ni  1.016245  8.080792  4.523156
 Ni  4.585423  9.843304  6.324057
 Ni  6.453869  8.118801  6.298455
 Ni  4.530333  7.999367  4.503341
 Ni  0.930590  0.891647  4.499566
 Ni  0.979360 11.687903  4.547458
 Ni  4.553525 13.584401  6.357821
 Ni  6.406721 13.548548  4.537090
 Ni  2.752034 13.538895  4.535271
 Ni  2.749674  0.926170  6.392278
 Ni  2.783987  2.660746  4.489717
 Ni  4.613310  2.643048  6.323394
 Ni  6.406277  2.558825  4.521513
 Ni  0.967794  4.465854  8.131392
 Ni  6.468640  4.367422  9.978668
 Ni  4.685220  4.449376  8.118019
 Ni  1.022840  9.797183  9.965214
 Ni  0.963670  8.016278  8.130849
 Ni  2.901556  7.872776 10.041578
 Ni  6.393541  8.127496  9.983032
 Ni  6.444692  9.913764  8.096292
 Ni  4.690503  8.048335  8.108683
 Ni  0.959557 13.515283  9.966238
 Ni  2.782266 11.613831  9.905831
 Ni  2.697724 13.475378  8.096716
 Ni  4.594685 13.482182  9.917937
 Ni  6.431912 11.733449  9.963632
 Ni  6.410322 13.504855  8.183131
 Ni  4.517157 11.686156  8.160096
 Ni  0.960328  2.715219  9.962289
 Ni  2.760174  0.830865 10.010922
 Ni  0.980280  0.911459  8.204894
 Ni  4.654516  2.661255  9.966863
 Ni  6.409949  0.839505  9.953585
 Ni  6.426492  2.626511  8.160292
 Ni  4.566256  0.835664  8.201939
 Ni  0.940113  6.274666 13.584517
 Ni  2.820183  4.351685 13.546871
 Ni  2.824902  4.677927  9.933652
 Ni  0.942927  4.481179 11.762427
 Ni  4.650248  6.212857 13.583465
 Ni  6.445383  4.486436 13.577666
 Ni  6.456974  6.255662 11.783231
 Ni  4.672809  4.466221 11.745193
 Ni  0.970995 11.716250  0.890652
 Ni  2.827632  8.085223 13.559431
 Ni  2.893420  9.859676 11.723452
 Ni  1.002472  8.047883 11.761998
 Ni  6.394015  6.249843  0.938210
 Ni  6.394866  9.902620 11.834773
 Ni  6.411947  8.067282 13.638637
 Ni  0.988222 13.507317 13.512767
 Ni  2.768095 11.731054 13.544668
 Ni  0.986399 11.641268 11.711904
 Ni  6.433132 11.716468 13.598318
 Ni  6.419892 13.506372 11.735495
 Ni  4.638761 11.749736 11.777413
 Ni  0.941495  2.665565 13.521455
 Ni  4.631925  0.827733 11.730903
 Ni  6.447010  0.839942 13.557581
 Ni  6.472010  2.633509 11.739223
 %ENDBLOCK POSITIONS_ABS
 
%block positions_abs_product 
     ang 
Al  8.216577  4.464993  0.929429
 Al 11.843122  4.478648  0.912363
 Al  8.214575  8.089028  0.972685
 Al 11.855887  8.084336  0.925040
 Al  8.305755 11.689134  0.840882
 Al 11.878115 11.683899  0.888591
 Al  8.244254  0.864111  0.906511
 Al 11.856977  0.861328  0.885299
 Al  8.216916  4.443385  4.538129
 Al 11.861568  4.477466  4.494044
 Al  8.276515  8.001267  4.521365
 Al 11.872969  8.084234  4.511991
 Al  8.408686 11.813470  4.527510
 Al 11.880790 11.685663  4.514207
 Al  8.311992  0.820280  4.445889
 Al 11.887210  0.867694  4.488998
 Al  8.299718  4.371762  8.101380
 Al 11.846738  4.488430  8.124641
 Al  8.270725  8.172285  8.090385
 Al 11.845494  8.079562  8.119426
 Al  8.302977 11.705959  8.196015
 Al 11.905263 11.682942  8.149789
 Al  8.353508  0.838979  8.236445
 Al 11.854069  0.850137  8.149928
 Al  8.242658  4.484245 11.742325
 Al 11.819239  4.497805 11.767583
 Al  8.195304  8.068907 11.746341
 Al 11.838031  8.076066 11.764221
 Al  8.224120 11.689545 11.770684
 Al 11.842132 11.667968 11.778981
 Al  8.237068  0.852778 11.748375
 Al 11.870704  0.852648 11.781448
 Al  4.769626  2.660705 13.545072
 Al  0.824611  0.876132 11.751599
 Al  2.795289  2.760165 11.632460
 Al  4.671697 13.545110 13.631002
 Al  2.781580 13.419044 11.676727
 Al  4.612708  9.981248 13.689052
 Al  1.001029  9.874798 13.545714
 Al  2.822621  2.659453  8.257775
 Al  0.857850 11.687220  8.275626
 Al  4.736197  9.957179  9.937502
 Al  2.762148  9.708648  8.161169
 Al  4.708058  6.165730  9.923615
 Al  4.702137  8.042352 11.864477
 Al  2.876470  6.254494  7.880019
 Al  0.839956  6.272393  9.918015
 Al  4.549510  0.845716  4.514449
 Al  6.378227  0.834301  6.439827
 Al  2.643654  0.782792  2.676359
 Al  0.892871  2.657131  6.261121
 Al  6.254446 11.816146  6.381054
 Al  0.887037 13.647012  6.274173
 Al  2.880764 11.716219  6.228867
 Al  6.246437  9.812553  4.492059
 Al  6.288974  6.240155  7.842269
 Al  2.844799  6.156532  4.645615
 Al  2.711455  2.732585  0.889071
 Al  6.292780 11.826069  2.649448
 Al  2.766725 11.725343  2.696391
 Al  2.815380  6.181748  0.834392
 Al  2.732784  6.172731 11.933106
 Al  2.793629  8.183151  2.715077
 Ni  8.181965  6.247248  2.744910
 Ni 10.034947  4.464444  2.719542
 Ni 10.024702  6.284268  0.944106
 Ni 11.866960  6.282889  2.715604
 Ni 13.674334  4.487947  2.696030
 Ni 13.658250  6.293124  0.925825
 Ni  8.176291  9.973434  2.828836
 Ni 10.032727  8.088764  2.731138
 Ni 10.041746  9.874222  0.930170
 Ni 11.870493  9.879276  2.720058
 Ni 13.697310  8.081133  2.720565
 Ni 13.681280  9.880293  0.916144
 Ni  8.252948 13.466145  2.696735
 Ni 10.079757 11.696087  2.689466
 Ni 10.045833 13.507208  0.890010
 Ni 11.868880 13.508275  2.670858
 Ni 13.660348 11.687318  2.698864
 Ni 13.671254 13.496742  0.877161
 Ni  8.225315  2.659239  2.732036
 Ni 10.074754  0.853268  2.681661
 Ni 10.027230  2.670684  0.900866
 Ni 11.856201  2.673089  2.678534
 Ni 13.676417  0.860839  2.665247
 Ni 13.667243  2.672856  0.893923
 Ni  8.223616  6.252210  6.349940
 Ni 10.053189  4.463013  6.306483
 Ni 10.052253  6.256741  4.509426
 Ni 11.845307  6.290062  6.290522
 Ni 13.657416  4.499490  6.298301
 Ni 13.687959  6.283085  4.499137
 Ni  8.185013 10.002293  6.205690
 Ni 10.030879  8.093440  6.307122
 Ni 10.063266  9.894804  4.520105
 Ni 11.869951  9.871859  6.323461
 Ni 13.688556  8.081594  6.313730
 Ni 13.690523  9.887714  4.526393
 Ni  8.252146 13.526327  6.357308
 Ni 10.094354 11.708705  6.345637
 Ni 10.120464 13.535457  4.513329
 Ni 11.892938 13.491253  6.330787
 Ni 13.697995 11.687608  6.331242
 Ni 13.644777 13.510202  4.470906
 Ni  8.254741  2.559956  6.320906
 Ni 10.098903  0.836868  6.325446
 Ni 10.061077  2.652795  4.513127
 Ni 11.861558  2.692126  6.312619
 Ni 13.601057  0.885292  6.337942
 Ni 13.630893  2.678816  4.460372
 Ni  8.191723  6.271065  9.838058
 Ni 10.040401  4.484211  9.936998
 Ni 10.040637  6.282270  8.113537
 Ni 11.852155  6.288346  9.941910
 Ni 13.626751  4.453013  9.942998
 Ni 13.624848  6.276433  8.081889
 Ni  8.194488  9.887873  9.945881
 Ni 10.015699  8.082075  9.929920
 Ni 10.048728  9.905017  8.116777
 Ni 11.832636  9.869676  9.943220
 Ni 13.647138  8.101668  9.943138
 Ni 13.672005  9.843693  8.139078
 Ni  8.254088 13.507693  9.961029
 Ni 10.054796 11.677532  9.971738
 Ni 10.084348 13.490819  8.151458
 Ni 11.855057 13.491346  9.971321
 Ni 13.633135 11.663922 10.011342
 Ni 13.658221 13.526379  8.166405
 Ni  8.259388  2.654562  9.941596
 Ni 10.087062  0.847364  9.987206
 Ni 10.087260  2.649800  8.129166
 Ni 11.836031  2.673698  9.957279
 Ni 13.623299  0.871007  9.933760
 Ni 13.630291  2.679105  8.148421
 Ni  8.229920  6.287422 13.603394
 Ni 10.021736  4.483973 13.576345
 Ni 10.016368  6.294118 11.746834
 Ni 11.824152  6.279245 13.595125
 Ni 13.646268  4.487864 13.577068
 Ni 13.624922  6.284066 11.793092
 Ni  8.221189  9.860503 13.588857
 Ni 10.026592  8.080622 13.585369
 Ni 10.019072  9.862705 11.760377
 Ni 11.855426  9.868222 13.572976
 Ni 13.658037  8.065553 13.576649
 Ni 13.650649  9.853545 11.747859
 Ni  8.232605 13.516375 13.553625
 Ni 10.052763 11.676862 13.552022
 Ni 10.048629 13.497529 11.767363
 Ni 11.843037 13.501028 13.567578
 Ni 13.671295 11.698281 13.540316
 Ni 13.636809 13.474250 11.761026
 Ni  8.217492  2.675118 13.561802
 Ni 10.036733  0.859001 13.558698
 Ni 10.040902  2.674033 11.764120
 Ni 11.839608  2.682300 13.576970
 Ni 13.635964  0.850334 13.583127
 Ni 13.599750  2.711581 11.765821
 Ni  1.053087  6.289028  2.721730
 Ni  2.806230  4.452127  2.729110
 Ni  0.960943  4.496318  0.900450
 Ni  4.565885  6.263462  2.769934
 Ni  6.373128  4.444977  2.754609
 Ni  4.599616  8.040525  0.934875
 Ni  4.642257  4.428106  0.927396
 Ni  0.999189  8.055309  0.921337
 Ni  0.968037  9.905424  2.709217
 Ni  4.615190  9.905473  2.669788
 Ni  6.373530  8.039048  2.755294
 Ni  6.438067  9.913050  0.966145
 Ni  2.766018  9.902954  0.897280
 Ni  0.936931 13.478350  2.698032
 Ni  4.548891 11.750018  0.907484
 Ni  2.755756 13.529793  0.851749
 Ni  4.563695 13.599523  2.688447
 Ni  4.611189 11.752149  4.477659
 Ni  6.437115 13.539018  0.907573
 Ni  0.971858  2.680281  2.683985
 Ni  4.569741  0.909352  0.906140
 Ni  0.989056  0.857421  0.840654
 Ni  4.582021  2.616647  2.710392
 Ni  6.417531  0.832097  2.686433
 Ni  6.422225  2.650484  0.957051
 Ni  2.786628  0.903489 13.476821
 Ni  0.981941  6.249208  6.292416
 Ni  2.784329  4.326301  6.333395
 Ni  0.976140  4.462228  4.483207
 Ni  6.417126  4.343885  6.316845
 Ni  6.335871  6.242489  4.600801
 Ni  4.606188  4.385682  4.542808
 Ni  1.036561  9.938461  6.359038
 Ni  2.782533  8.092753  6.277503
 Ni  2.807597  9.911831  4.510614
 Ni  1.022087  8.085999  4.517121
 Ni  4.585613  9.868159  6.327266
 Ni  6.426705  8.128542  6.312704
 Ni  4.535754  8.029656  4.549451
 Ni  0.920792  0.883889  4.477496
 Ni  0.976890 11.702548  4.530248
 Ni  4.547232 13.589155  6.348704
 Ni  6.414641 13.553316  4.527014
 Ni  2.746231 13.542103  4.518768
 Ni  2.732962  0.919073  6.377602
 Ni  2.781227  2.634348  4.471027
 Ni  4.611970  2.625137  6.324656
 Ni  6.405163  2.553928  4.529370
 Ni  0.961433  4.469605  8.113115
 Ni  6.444314  4.443764  9.889604
 Ni  4.622276  4.437874  8.104881
 Ni  1.012228  9.810018  9.968661
 Ni  0.984701  8.017957  8.117734
 Ni  2.868281  7.888662 10.019952
 Ni  6.363054  8.045697  9.889788
 Ni  6.434896  9.936645  8.080155
 Ni  4.609644  8.070801  8.081995
 Ni  0.953577 13.523678  9.974701
 Ni  2.775936 11.625579  9.911760
 Ni  2.689287 13.482964  8.098589
 Ni  4.589639 13.492255  9.922501
 Ni  6.421388 11.736234  9.956515
 Ni  6.405285 13.510113  8.181267
 Ni  4.507414 11.704530  8.161170
 Ni  0.939693  2.711018  9.960834
 Ni  2.752104  0.832058 10.017058
 Ni  0.964758  0.903814  8.201159
 Ni  4.643668  2.673772  9.947837
 Ni  6.400833  0.845358  9.945937
 Ni  6.418963  2.613067  8.148555
 Ni  4.553893  0.830747  8.197491
 Ni  0.938894  6.274755 13.594634
 Ni  2.819204  4.361263 13.554353
 Ni  2.769641  4.643552  9.912593
 Ni  0.936650  4.484236 11.760726
 Ni  4.651266  6.218995 13.576073
 Ni  6.441474  4.497016 13.568873
 Ni  6.450718  6.260341 11.757632
 Ni  4.657121  4.457004 11.747484
 Ni  0.978273 11.711249  0.883311
 Ni  2.826765  8.085066 13.562277
 Ni  2.892795  9.855546 11.711981
 Ni  0.998958  8.046020 11.758245
 Ni  6.389980  6.256513  0.944780
 Ni  6.389690  9.877708 11.797460
 Ni  6.408902  8.066548 13.627227
 Ni  0.991252 13.508748 13.514463
 Ni  2.778162 11.727940 13.542785
 Ni  0.987001 11.649127 11.720377
 Ni  6.432879 11.702277 13.584251
 Ni  6.410777 13.507633 11.731807
 Ni  4.635319 11.742668 11.772025
 Ni  0.944195  2.676832 13.529195
 Ni  4.624722  0.842418 11.724679
 Ni  6.440732  0.856003 13.546467
 Ni  6.460584  2.665636 11.707539
%endblock positions_abs_product 
%block positions_abs_intermediate 
     ang 
Al  8.223426  4.456824  0.928446
 Al 11.845967  4.470373  0.913992
 Al  8.220732  8.092505  0.970161
 Al 11.857095  8.085402  0.926379
 Al  8.308751 11.693575  0.846000
 Al 11.880728 11.685940  0.894362
 Al  8.247513  0.858987  0.912794
 Al 11.859596  0.857266  0.892296
 Al  8.221097  4.436841  4.527686
 Al 11.855266  4.475561  4.505932
 Al  8.282592  8.001517  4.509417
 Al 11.864149  8.079347  4.519678
 Al  8.403997 11.808717  4.533037
 Al 11.877823 11.683770  4.522693
 Al  8.308754  0.822032  4.451531
 Al 11.885981  0.865551  4.501309
 Al  8.240131  4.422089  8.115538
 Al 11.836866  4.488478  8.131113
 Al  8.218365  8.115325  8.110118
 Al 11.832974  8.074901  8.124061
 Al  8.301904 11.706247  8.199170
 Al 11.898369 11.676908  8.149774
 Al  8.352024  0.835306  8.239758
 Al 11.845832  0.851525  8.151161
 Al  8.250898  4.472223 11.761877
 Al 11.813295  4.491927 11.764706
 Al  8.202125  8.074988 11.767636
 Al 11.832421  8.078275 11.763355
 Al  8.229056 11.691415 11.775295
 Al 11.841556 11.668119 11.778424
 Al  8.244713  0.848941 11.751736
 Al 11.874954  0.847807 11.778339
 Al  4.767141  2.657428 13.543968
 Al  0.824707  0.873550 11.746776
 Al  2.799751  2.759460 11.633219
 Al  4.667609 13.543139 13.632474
 Al  2.781210 13.415084 11.673368
 Al  4.610718  9.984824 13.689694
 Al  0.994684  9.875112 13.547452
 Al  2.839804  2.679807  8.261821
 Al  0.863158 11.676266  8.274460
 Al  4.732590  9.963910  9.950327
 Al  2.777130  9.680933  8.158074
 Al  4.817922  6.180453  9.851153
 Al  4.707449  8.034640 11.865335
 Al  2.822850  6.264178  7.959028
 Al  0.830374  6.270070  9.937864
 Al  4.547611  0.849051  4.519979
 Al  6.376247  0.838845  6.442356
 Al  2.642065  0.783652  2.684095
 Al  0.904026  2.665484  6.269931
 Al  6.252148 11.806823  6.381046
 Al  0.892669 13.644098  6.280338
 Al  2.884460 11.708234  6.233277
 Al  6.241632  9.801618  4.488751
 Al  5.588062  6.232939  7.106517
 Al  2.786086  6.154226  4.586626
 Al  2.704546  2.724442  0.883383
 Al  6.290420 11.823769  2.651796
 Al  2.764913 11.719599  2.703123
 Al  2.808017  6.179638  0.828336
 Al  2.746650  6.170942 11.930514
 Al  2.780471  8.189753  2.702237
 Ni  8.198559  6.244988  2.724036
 Ni 10.040964  4.459874  2.721267
 Ni 10.035814  6.280018  0.941584
 Ni 11.864106  6.279121  2.720012
 Ni 13.668111  4.483110  2.699523
 Ni 13.649301  6.291328  0.919911
 Ni  8.176171  9.975029  2.827915
 Ni 10.038470  8.087405  2.730177
 Ni 10.047057  9.877623  0.934592
 Ni 11.868909  9.878655  2.726863
 Ni 13.691502  8.078880  2.723826
 Ni 13.678000  9.882775  0.920130
 Ni  8.251853 13.464528  2.702998
 Ni 10.080672 11.695062  2.697883
 Ni 10.050580 13.507419  0.896965
 Ni 11.869839 13.507812  2.681817
 Ni 13.659152 11.687257  2.709033
 Ni 13.671829 13.495614  0.883822
 Ni  8.227612  2.654904  2.730617
 Ni 10.075990  0.850517  2.691539
 Ni 10.034094  2.663599  0.905645
 Ni 11.855962  2.667784  2.686289
 Ni 13.679777  0.859031  2.675857
 Ni 13.667661  2.667235  0.896722
 Ni  8.193207  6.249053  6.337361
 Ni 10.033929  4.464660  6.319417
 Ni 10.046704  6.252965  4.514131
 Ni 11.834476  6.287378  6.301402
 Ni 13.653484  4.496097  6.309330
 Ni 13.681407  6.279671  4.505163
 Ni  8.177668  9.998542  6.215352
 Ni 10.009390  8.087420  6.318858
 Ni 10.058903  9.890936  4.525687
 Ni 11.859989  9.865949  6.330325
 Ni 13.681437  8.078814  6.318580
 Ni 13.687842  9.884932  4.534047
 Ni  8.245673 13.525270  6.360085
 Ni 10.087801 11.704584  6.350547
 Ni 10.116426 13.534000  4.520764
 Ni 11.891459 13.488866  6.337062
 Ni 13.701377 11.680690  6.335910
 Ni 13.648850 13.508489  4.483090
 Ni  8.250023  2.563163  6.331998
 Ni 10.092892  0.835192  6.330833
 Ni 10.058921  2.651674  4.521493
 Ni 11.855669  2.692293  6.324530
 Ni 13.605123  0.886247  6.347565
 Ni 13.627888  2.675011  4.471320
 Ni  8.179475  6.268047  9.887005
 Ni 10.029053  4.481951  9.938769
 Ni 10.009852  6.279064  8.121821
 Ni 11.845190  6.286810  9.943469
 Ni 13.624859  4.449420  9.945360
 Ni 13.619938  6.274422  8.089127
 Ni  8.199072  9.888545  9.951663
 Ni 10.004501  8.078435  9.934714
 Ni 10.026988  9.889887  8.120364
 Ni 11.824514  9.868271  9.942979
 Ni 13.641395  8.102821  9.945616
 Ni 13.667563  9.842039  8.141542
 Ni  8.257025 13.505984  9.965915
 Ni 10.054591 11.678151  9.972207
 Ni 10.081296 13.488921  8.152054
 Ni 11.855232 13.488527  9.968191
 Ni 13.632152 11.659170 10.006884
 Ni 13.661837 13.523399  8.166884
 Ni  8.263932  2.650508  9.944799
 Ni 10.087258  0.843732  9.988238
 Ni 10.068995  2.659478  8.133596
 Ni 11.831139  2.670778  9.955712
 Ni 13.628026  0.871736  9.929380
 Ni 13.633032  2.678299  8.153136
 Ni  8.234281  6.284248 13.611227
 Ni 10.027655  4.475831 13.583256
 Ni 10.016730  6.291130 11.755011
 Ni 11.821229  6.276231 13.592047
 Ni 13.644632  4.484139 13.573672
 Ni 13.618583  6.283500 11.796407
 Ni  8.224889  9.866889 13.596633
 Ni 10.031224  8.082508 13.591248
 Ni 10.020415  9.866159 11.765059
 Ni 11.856973  9.871204 13.573843
 Ni 13.654151  8.066193 13.574481
 Ni 13.650330  9.854189 11.745429
 Ni  8.237329 13.516290 13.556500
 Ni 10.056663 11.679191 13.558307
 Ni 10.053716 13.496627 11.770137
 Ni 11.845436 13.500304 13.569489
 Ni 13.671521 11.699987 13.540950
 Ni 13.639628 13.472422 11.756297
 Ni  8.223091  2.664761 13.571089
 Ni 10.043202  0.854950 13.563964
 Ni 10.043398  2.666570 11.768396
 Ni 11.843016  2.675741 13.576516
 Ni 13.636409  0.846272 13.582335
 Ni 13.601200  2.707814 11.762029
 Ni  1.032365  6.285828  2.708487
 Ni  2.796527  4.444321  2.716532
 Ni  0.954315  4.492407  0.893413
 Ni  4.558757  6.259189  2.742071
 Ni  6.375738  4.437662  2.740362
 Ni  4.596259  8.041442  0.930285
 Ni  4.638668  4.419726  0.922614
 Ni  0.989864  8.054586  0.916760
 Ni  0.962097  9.904162  2.711956
 Ni  4.610304  9.903070  2.665720
 Ni  6.375201  8.043073  2.736247
 Ni  6.434684  9.917543  0.963131
 Ni  2.758848  9.907052  0.892631
 Ni  0.939168 13.477517  2.708165
 Ni  4.543108 11.751690  0.909476
 Ni  2.752195 13.529718  0.856435
 Ni  4.560494 13.598775  2.693198
 Ni  4.611209 11.745090  4.478344
 Ni  6.435398 13.539359  0.911806
 Ni  0.970957  2.677503  2.688703
 Ni  4.566743  0.906236  0.904956
 Ni  0.987805  0.853469  0.843989
 Ni  4.577005  2.613908  2.709964
 Ni  6.415360  0.830194  2.689294
 Ni  6.421890  2.642571  0.956282
 Ni  2.782926  0.897630 13.474726
 Ni  0.969362  6.246695  6.300014
 Ni  2.804674  4.379127  6.337474
 Ni  0.964148  4.454465  4.488208
 Ni  6.427927  4.340563  6.309189
 Ni  6.371034  6.243340  4.536898
 Ni  4.605974  4.405041  4.530313
 Ni  1.045447  9.922345  6.364426
 Ni  2.802847  8.040534  6.281374
 Ni  2.808231  9.899594  4.516498
 Ni  1.019166  8.083396  4.520139
 Ni  4.585518  9.855732  6.325662
 Ni  6.440287  8.123671  6.305580
 Ni  4.533043  8.014512  4.526396
 Ni  0.925691  0.887768  4.488531
 Ni  0.978125 11.695225  4.538853
 Ni  4.550379 13.586778  6.353262
 Ni  6.410681 13.550932  4.532052
 Ni  2.749132 13.540499  4.527019
 Ni  2.741318  0.922622  6.384940
 Ni  2.782607  2.647547  4.480372
 Ni  4.612640  2.634092  6.324025
 Ni  6.405720  2.556377  4.525442
 Ni  0.964614  4.467730  8.122253
 Ni  6.456477  4.405593  9.934136
 Ni  4.653748  4.443625  8.111450
 Ni  1.017534  9.803601  9.966938
 Ni  0.974186  8.017117  8.124292
 Ni  2.884918  7.880719 10.030765
 Ni  6.378297  8.086596  9.936410
 Ni  6.439794  9.925204  8.088223
 Ni  4.650074  8.059568  8.095339
 Ni  0.956567 13.519481  9.970469
 Ni  2.779101 11.619705  9.908795
 Ni  2.693505 13.479171  8.097653
 Ni  4.592162 13.487219  9.920219
 Ni  6.426650 11.734842  9.960074
 Ni  6.407804 13.507484  8.182199
 Ni  4.512285 11.695343  8.160633
 Ni  0.950011  2.713118  9.961562
 Ni  2.756139  0.831462 10.013990
 Ni  0.972519  0.907636  8.203027
 Ni  4.649092  2.667514  9.957350
 Ni  6.405391  0.842432  9.949761
 Ni  6.422728  2.619789  8.154423
 Ni  4.560074  0.833205  8.199715
 Ni  0.939503  6.274710 13.589576
 Ni  2.819694  4.356474 13.550612
 Ni  2.797272  4.660739  9.923122
 Ni  0.939789  4.482708 11.761577
 Ni  4.650757  6.215926 13.579769
 Ni  6.443428  4.491726 13.573269
 Ni  6.453846  6.258002 11.770431
 Ni  4.664965  4.461612 11.746338
 Ni  0.974634 11.713749  0.886981
 Ni  2.827198  8.085145 13.560854
 Ni  2.893107  9.857611 11.717716
 Ni  1.000715  8.046952 11.760122
 Ni  6.391997  6.253178  0.941495
 Ni  6.392278  9.890164 11.816116
 Ni  6.410424  8.066915 13.632932
 Ni  0.989737 13.508033 13.513615
 Ni  2.773129 11.729497 13.543726
 Ni  0.986700 11.645197 11.716141
 Ni  6.433005 11.709372 13.591285
 Ni  6.415334 13.507002 11.733651
 Ni  4.637040 11.746202 11.774719
 Ni  0.942845  2.671198 13.525325
 Ni  4.628323  0.835075 11.727791
 Ni  6.443871  0.847973 13.552024
 Ni  6.466297  2.649573 11.723381
%endblock positions_abs_intermediate 
     kpoint_mp_grid 1 1 1 
     fix_com : false