#######################################################
#CASTEP cell file: /home/eng/phrbwm/kART/checks/AB-NEB/CASTEP/castep.cell
#Created using the Atomic Simulation Environment (ASE)#
#######################################################

%BLOCK LATTICE_CART
14.452800  0.000000  0.000000
 0.000000 14.452800  0.000000
 0.000000  0.000000 14.452800
%ENDBLOCK LATTICE_CART

%BLOCK POSITIONS_ABS
Ni  0.903300  2.709900  2.709900
Al  4.516500 11.742900 11.742900
Ni  2.709900  2.709900  0.903300
Ni  0.903300  0.903300  0.903300
Ni  4.516500  2.709900  2.709900
Al  6.323100 11.742900 13.549500
Ni  6.323100  2.709900  0.903300
Ni  4.516500  0.903300  0.903300
Ni  8.129700  2.709900  2.709900
Ni  9.936300  0.903300  2.709900
Ni  9.936300  2.709900  0.903300
Ni  8.129700  0.903300  0.903300
Ni 11.742900  2.709900  2.709900
Ni 13.549500  0.903300  2.709900
Al  0.903300 13.549500 13.549500
Al  9.936300  8.129700 13.549500
Ni  0.903300  6.323100  2.709900
Al  4.516500  8.129700 11.742900
Al  4.516500  9.936300 13.549500
Al  9.936300  4.516500 13.549500
Ni  4.516500  6.323100  2.709900
Ni  6.323100  4.516500  2.709900
Al  4.516500  4.516500 11.742900
Ni  4.516500  4.516500  0.903300
Ni  8.129700  6.323100  2.709900
Ni  9.936300  4.516500  2.709900
Al  2.709900  6.323100 11.742900
Ni  8.129700  4.516500  0.903300
Ni 11.742900  6.323100  2.709900
Ni 13.549500  4.516500  2.709900
Ni 13.549500  6.323100  0.903300
Al  2.709900  4.516500 13.549500
Ni  0.903300  9.936300  2.709900
Ni  2.709900  8.129700  2.709900
Ni  2.709900  9.936300  0.903300
Ni  0.903300  8.129700  0.903300
Ni  4.516500  9.936300  2.709900
Ni  6.323100  8.129700  2.709900
Al  0.903300  6.323100 13.549500
Al  9.936300  0.903300 13.549500
Ni  8.129700  9.936300  2.709900
Ni  9.936300  8.129700  2.709900
Ni  9.936300  9.936300  0.903300
Al  8.129700  2.709900 13.549500
Al  2.709900  2.709900 11.742900
Ni 13.549500  8.129700  2.709900
Ni 13.549500  9.936300  0.903300
Al  0.903300  2.709900 13.549500
Ni  0.903300 13.549500  2.709900
Ni  2.709900 11.742900  2.709900
Ni  2.709900 13.549500  0.903300
Ni  0.903300 11.742900  0.903300
Ni  4.516500 13.549500  2.709900
Ni  6.323100 11.742900  2.709900
Ni  6.323100 13.549500  0.903300
Al 13.549500 11.742900  9.936300
Ni  8.129700 13.549500  2.709900
Al  4.516500 11.742900  8.129700
Ni  9.936300 13.549500  0.903300
Ni  8.129700 11.742900  0.903300
Ni 11.742900 13.549500  2.709900
Ni 13.549500 11.742900  2.709900
Ni 13.549500 13.549500  0.903300
Al  6.323100 11.742900  9.936300
Ni  0.903300  2.709900  6.323100
Ni  2.709900  0.903300  6.323100
Ni  2.709900  2.709900  4.516500
Ni  0.903300  0.903300  4.516500
Ni  4.516500  2.709900  6.323100
Ni  6.323100  0.903300  6.323100
Ni  6.323100  2.709900  4.516500
Al  4.516500 13.549500  9.936300
Al  2.709900 11.742900  9.936300
Ni  9.936300  0.903300  6.323100
Ni  9.936300  2.709900  4.516500
Al  0.903300 13.549500  9.936300
Ni 11.742900  2.709900  6.323100
Ni 13.549500  0.903300  6.323100
Ni 13.549500  2.709900  4.516500
Ni 11.742900  0.903300  4.516500
Al 11.742900  8.129700  8.129700
Ni  2.709900  4.516500  6.323100
Ni  2.709900  6.323100  4.516500
Ni  0.903300  4.516500  4.516500
Al 11.742900  9.936300  9.936300
Ni  6.323100  4.516500  6.323100
Ni  6.323100  6.323100  4.516500
Ni  4.516500  4.516500  4.516500
Al  8.129700  8.129700  8.129700
Ni  9.936300  4.516500  6.323100
Ni  9.936300  6.323100  4.516500
Al  6.323100  9.936300  8.129700
Ni 11.742900  6.323100  6.323100
Al  6.323100  8.129700  9.936300
Al 11.742900  4.516500  8.129700
Ni 11.742900  4.516500  4.516500
Al  4.516500  4.516500  8.129700
Ni  2.709900  8.129700  6.323100
Ni  2.709900  9.936300  4.516500
Ni  0.903300  8.129700  4.516500
Ni  4.516500  9.936300  6.323100
Ni  6.323100  8.129700  6.323100
Ni  6.323100  9.936300  4.516500
Ni  4.516500  8.129700  4.516500
Ni  8.129700  9.936300  6.323100
Al  6.323100  6.323100  8.129700
Ni  9.936300  9.936300  4.516500
Ni  8.129700  8.129700  4.516500
Ni 11.742900  9.936300  6.323100
Ni 13.549500  8.129700  6.323100
Ni 13.549500  9.936300  4.516500
Al  0.903300  2.709900  9.936300
Ni  0.903300 13.549500  6.323100
Ni  2.709900 11.742900  6.323100
Ni  2.709900 13.549500  4.516500
Al 11.742900 13.549500  6.323100
Ni  4.516500 13.549500  6.323100
Al  9.936300 13.549500  4.516500
Ni  6.323100 13.549500  4.516500
Ni  4.516500 11.742900  4.516500
Ni  8.129700 13.549500  6.323100
Ni  9.936300 11.742900  6.323100
Al  6.323100 11.742900  6.323100
Ni  8.129700 11.742900  4.516500
Al  0.903300 11.742900  4.516500
Ni 13.549500 11.742900  6.323100
Ni 13.549500 13.549500  4.516500
Ni 11.742900 11.742900  4.516500
Al 11.742900  8.129700  4.516500
Ni  2.709900  0.903300  9.936300
Ni  2.709900  2.709900  8.129700
Ni  0.903300  0.903300  8.129700
Ni  4.516500  2.709900  9.936300
Ni  6.323100  0.903300  9.936300
Ni  6.323100  2.709900  8.129700
Ni  4.516500  0.903300  8.129700
Ni  8.129700  2.709900  9.936300
Ni  9.936300  0.903300  9.936300
Ni  9.936300  2.709900  8.129700
Ni  8.129700  0.903300  8.129700
Ni 11.742900  2.709900  9.936300
Ni 13.549500  0.903300  9.936300
Ni 13.549500  2.709900  8.129700
Ni 11.742900  0.903300  8.129700
Ni  0.903300  6.323100  9.936300
Ni  2.709900  4.516500  9.936300
Ni  2.709900  6.323100  8.129700
Ni  0.903300  4.516500  8.129700
Ni  4.516500  6.323100  9.936300
Ni  6.323100  4.516500  9.936300
Al  9.936300  8.129700  6.323100
Al  0.903300  9.936300  6.323100
Ni  8.129700  6.323100  9.936300
Ni  9.936300  4.516500  9.936300
Ni  9.936300  6.323100  8.129700
Ni  8.129700  4.516500  8.129700
Ni 11.742900  6.323100  9.936300
Ni 13.549500  4.516500  9.936300
Ni 13.549500  6.323100  8.129700
Al 13.549500  6.323100  4.516500
Ni  0.903300  9.936300  9.936300
Ni  2.709900  8.129700  9.936300
Ni  2.709900  9.936300  8.129700
Ni  0.903300  8.129700  8.129700
Ni  4.516500  9.936300  9.936300
Al 13.549500  4.516500  6.323100
Al  8.129700  4.516500  4.516500
Ni  4.516500  8.129700  8.129700
Ni  8.129700  9.936300  9.936300
Ni  9.936300  8.129700  9.936300
Ni  9.936300  9.936300  8.129700
Al  8.129700  6.323100  6.323100
Al  4.516500  6.323100  6.323100
Ni 13.549500  8.129700  9.936300
Ni 13.549500  9.936300  8.129700
Al  0.903300  6.323100  6.323100
Al  8.129700  0.903300  4.516500
Al  8.129700  2.709900  6.323100
Ni  2.709900 13.549500  8.129700
Ni  0.903300 11.742900  8.129700
Al  4.516500  0.903300  4.516500
Al 11.742900 11.742900  0.903300
Ni  6.323100 13.549500  8.129700
Al  9.936300 11.742900  2.709900
Ni  8.129700 13.549500  9.936300
Ni  9.936300 11.742900  9.936300
Ni  9.936300 13.549500  8.129700
Ni  8.129700 11.742900  8.129700
Ni 11.742900 13.549500  9.936300
Al  4.516500 11.742900  0.903300
Ni 13.549500 13.549500  8.129700
Ni 11.742900 11.742900  8.129700
Al 11.742900  8.129700  0.903300
Ni  2.709900  0.903300 13.549500
Al 11.742900  9.936300  2.709900
Ni  0.903300  0.903300 11.742900
Ni  4.516500  2.709900 13.549500
Ni  6.323100  0.903300 13.549500
Ni  6.323100  2.709900 11.742900
Ni  4.516500  0.903300 11.742900
Al  8.129700  8.129700  0.903300
Al  4.516500  8.129700  0.903300
Ni  9.936300  2.709900 11.742900
Ni  8.129700  0.903300 11.742900
Ni 11.742900  2.709900 13.549500
Ni 13.549500  0.903300 13.549500
Ni 13.549500  2.709900 11.742900
Ni 11.742900  0.903300 11.742900
Al  6.323100  9.936300  0.903300
Al 11.742900  4.516500  0.903300
Al  9.936300  6.323100  0.903300
Ni  0.903300  4.516500 11.742900
Ni  4.516500  6.323100 13.549500
Ni  6.323100  4.516500 13.549500
Ni  6.323100  6.323100 11.742900
Al  6.323100  6.323100  0.903300
Ni  8.129700  6.323100 13.549500
Al  0.903300  4.516500  0.903300
Ni  9.936300  6.323100 11.742900
Ni  8.129700  4.516500 11.742900
Ni 11.742900  6.323100 13.549500
Ni 13.549500  4.516500 13.549500
Ni 13.549500  6.323100 11.742900
Ni 11.742900  4.516500 11.742900
Ni  0.903300  9.936300 13.549500
Ni  2.709900  8.129700 13.549500
Ni  2.709900  9.936300 11.742900
Ni  0.903300  8.129700 11.742900
Al  2.709900  6.323100  0.903300
Ni  6.323100  8.129700 13.549500
Ni  6.323100  9.936300 11.742900
Al  2.709900  4.516500  2.709900
Ni  8.129700  9.936300 13.549500
Al 11.742900  0.903300  0.903300
Ni  9.936300  9.936300 11.742900
Ni  8.129700  8.129700 11.742900
Ni 11.742900  9.936300 13.549500
Ni 13.549500  8.129700 13.549500
Ni 13.549500  9.936300 11.742900
Ni 11.742900  8.129700 11.742900
Al 13.549500  2.709900  0.903300
Ni  2.709900 11.742900 13.549500
Ni  2.709900 13.549500 11.742900
Ni  0.903300 11.742900 11.742900
Ni  4.516500 13.549500 13.549500
Al  6.323100  0.903300  2.709900
Ni  6.323100 13.549500 11.742900
Al  2.709900  0.903300  2.709900
Ni  8.129700 13.549500 13.549500
Ni  9.936300 11.742900 13.549500
Ni  9.936300 13.549500 11.742900
Ni  8.129700 11.742900 11.742900
Ni 11.742900 13.549500 13.549500
Ni 13.549500 11.742900 13.549500
Ni 13.549500 13.549500 11.742900
Ni 11.742900 11.742900 11.742900
%ENDBLOCK POSITIONS_ABS

