#######################################################
#CASTEP cell file: /home/u2093113/Documents/kART/CASTEP/castep.cell
#Created using the Atomic Simulation Environment (ASE)#
#######################################################

%BLOCK LATTICE_CART
14.464828  0.000000  0.000000
 0.000000 14.464828  0.000000
 0.000000  0.000000 14.464828
%ENDBLOCK LATTICE_CART

%BLOCK POSITIONS_ABS
Al 13.673462 10.030037  8.148641
Al  9.652101  8.127620  6.337698
Al 11.686152 10.057462  6.278791
Al  6.076330  9.901328 11.688990
Al  6.463283  8.098251  6.351137
Al  6.044482  4.692255  6.351785
Al  8.116637  9.969500  9.880922
Al  4.350120  8.289538  8.144786
Al 13.611253  6.429380  8.240625
Al 11.716342  6.320794  6.269772
Al  8.059973  2.935460 10.037471
Al  6.115136  2.726136  8.165539
Al  2.657734  4.758936  6.371962
Al 13.654674 13.518651  8.145181
Al  9.980178  2.781838  8.081761
Al  8.028909 13.668407  6.534528
Al  2.667125  0.787803  6.397640
Al  2.678144  2.769745  8.352109
Al 11.801412 10.053905  2.864874
Al  4.450836  8.135304  4.459506
Al  2.604483 10.087642  4.516842
Al  9.855824  4.615130  2.783025
Al  8.030715  4.652054  4.637137
Al  2.549105  4.736178  2.609519
Al 13.694516  2.748145  4.678494
Al 11.738513  2.697822  2.872714
Al  8.019478  1.072963  4.481147
Al  4.616156  2.828483  2.719426
Al  2.573206  2.731092  4.489446
Al 13.633165 13.633051  4.551038
Al 13.550622  2.838893  8.092033
Al 11.551574  1.048830  0.845727
Al 11.519442 13.551869  2.793875
Al  8.038436 11.740190  4.491776
Al  4.486105 13.630720  2.925389
Al 13.592040  8.225879 13.653269
Al 11.645003  8.141020 11.754044
Al  9.920476  9.988104  0.949810
Al  8.068945  9.895417 13.537117
Al  2.564197  9.906384  0.938666
Al  9.959515  6.599429  0.958737
Al 11.865660  4.582772  0.819334
Al  8.089979  6.450593 13.603160
Al 13.644612  1.074011 13.430679
Al  6.260057  0.872548 13.558889
Al  8.186163  2.938676 13.660108
Al  4.347951  0.944272  0.854889
Al 13.697230 13.493947  0.954647
Al 11.566419 13.464441 13.431688
Al  6.270562 11.965401 13.538866
Al  4.428050 11.835725  0.934318
Al 11.619749 10.070790  9.891581
Al 11.704892  4.627900 11.757867
Al  8.133627  6.360498  9.865977
Al  6.166158  6.417558 11.839960
Al  4.288570  6.320590  9.985590
Al 11.587934 13.535808 10.054686
Al 11.535057 13.641333  6.380565
Al 13.579111  1.007598 10.152639
Al  8.159883  0.820440 11.681535
Ni  0.845041 11.817889 11.777589
Ni  0.875633 13.610653 10.001582
Ni  0.932097  0.955352 11.769033
Ni  0.816371  2.795070 10.007562
Ni  0.852739  4.591694 11.792993
Ni  0.889211  6.412439 10.009358
Ni  0.853967  8.225152 11.780825
Ni  0.883799 10.019551 10.012045
Ni  0.902622 11.775073  0.926423
Ni  0.874104 13.607171 13.569589
Ni  0.874572  0.974041  0.920395
Ni  0.883931  2.828355 13.594876
Ni  0.788231  4.590723  0.910541
Ni  0.823284  6.397025 13.596534
Ni  0.818750  8.200852  0.953791
Ni  0.857732 10.030394 13.549078
Ni  0.864227 11.834933  4.548754
Ni  0.950819 13.627801  2.739755
Ni  0.903927  0.925092  4.532614
Ni  0.838852  2.755879  2.691772
Ni  0.898869  4.612101  4.548154
Ni  0.802066  6.431156  2.730705
Ni  0.812231  8.207160  4.529809
Ni  0.813007 10.016621  2.747745
Ni  0.914422 11.815274  8.176591
Ni  0.902095 13.573011  6.376517
Ni  0.838001  0.952415  8.226511
Ni  1.056559  2.761294  6.420158
Ni  0.903897  4.596499  8.192299
Ni  0.842269  6.440677  6.328746
Ni  0.891962  8.219096  8.173033
Ni  0.885539 10.033692  6.335472
Ni  2.667861 13.607843 11.790840
Ni  4.449487 11.808468 11.777677
Ni  4.448162 13.617013  9.997464
Ni  2.653504 11.805650  9.998036
Ni  6.247842 13.625264 11.707949
Ni  7.991966 11.724536 11.773099
Ni  8.021184 13.584547  9.911710
Ni  6.238086 11.765412  9.961430
Ni  9.814848 13.515836 11.742830
Ni 11.704771 11.727100 11.751748
Ni  9.818694 11.801304  9.927442
Ni 13.516372 13.586009 11.802774
Ni 13.521911  2.855318 11.788604
Ni 13.529270 11.799339  9.975834
Ni  2.650422  2.780763 11.807518
Ni  4.447312  0.980961 11.779809
Ni  4.469947  2.792487 10.062948
Ni  2.658835  0.945172 10.006040
Ni  6.351833  2.752916 11.878418
Ni  9.887081  1.027086  9.932650
Ni  6.274758  1.018666 10.008005
Ni  9.874137  2.780638 11.770034
Ni 13.535323  4.614193 13.543045
Ni 11.739324  2.771865  9.959360
Ni  2.603354  6.381050 11.840227
Ni  4.448548  4.585444 11.827432
Ni  2.612764  4.577340 10.049789
Ni  8.079391  4.682912 11.801661
Ni  6.226581  4.639776 10.016813
Ni  9.899327  6.391607 11.755793
Ni 13.538970  4.607359  9.977126
Ni 11.712452  6.398793  9.910559
Ni 13.535974  6.440300 11.757005
Ni  2.663071 10.027709 11.797971
Ni  4.371535  8.152945 11.786934
Ni  4.384870 10.019443  9.942267
Ni  2.628583  8.219680  9.998453
Ni  6.193613  8.120645  9.966130
Ni  8.088773  8.183087 11.718521
Ni  6.169817  6.406976  8.180038
Ni  8.044168  8.160612  8.206329
Ni  9.907396  9.995836 11.733350
Ni 13.506484  8.267126  9.970357
Ni  9.936234  8.175454  9.896344
Ni 13.492977  9.979730 11.759951
Ni 11.684572  8.216127  8.071639
Ni  2.658628 13.618579  0.924854
Ni  4.414939 13.623592 13.549996
Ni  2.657751 11.803106 13.589519
Ni  6.240488 13.633102  0.970629
Ni  8.063424 11.775205  0.913221
Ni  8.101571 13.620787 13.594267
Ni  9.889384 13.611510  0.891334
Ni 11.732435 11.830398  0.917065
Ni  9.824990 11.718119 13.571227
Ni 13.520205 11.795322 13.571743
Ni  2.674676  2.811991  0.951288
Ni  4.456342  2.760593 13.593425
Ni  2.617537  0.976524 13.573098
Ni  6.277529  2.768549  0.866160
Ni  8.096433  0.992635  0.906185
Ni  9.940529  2.884212  1.014136
Ni  9.843335  0.981517 13.551098
Ni 11.673482  2.781326 13.545303
Ni 11.644448  0.962678 11.778049
Ni 13.488835  2.712638  0.909253
Ni  2.609517  6.450040  0.884063
Ni  4.461912  4.590761  0.905431
Ni  4.403283  6.406820 13.618714
Ni  2.650085  4.592959 13.613840
Ni  6.232116  6.410958  0.921335
Ni  8.079592  4.714250  0.959671
Ni  6.256261  4.617260 13.596923
Ni  9.906279  8.225181 13.574852
Ni  9.929093  4.692406 13.627631
Ni 13.518970  6.406339  0.956701
Ni 11.755269  6.448700 13.588432
Ni  4.449847  8.217508  0.910411
Ni  4.435167 10.041009 13.606098
Ni  2.616854  8.209501 13.565627
Ni  6.246583 10.057531  0.879768
Ni  8.036431  8.210224  0.947240
Ni  6.221441  8.215322 13.584872
Ni 11.762403  8.275682  0.979327
Ni 11.741281 10.003559 13.563427
Ni 13.541885 10.068765  0.940120
Ni  2.682231 13.570111  4.562303
Ni  4.499715 11.782129  4.563511
Ni  2.671508 11.812135  2.696512
Ni  6.359520 13.626413  4.599025
Ni  6.263727 11.794337  6.360090
Ni  8.063721 13.619440  2.683502
Ni  6.246576 11.807817  2.718254
Ni  9.851812 11.768178  2.711181
Ni 13.530126 11.877863  2.787200
Ni  4.485956  1.013586  4.584584
Ni  2.710813  0.980454  2.725038
Ni  6.215618  2.851901  4.600345
Ni  8.031324  2.839390  2.707459
Ni  6.247929  0.973152  2.686633
Ni  9.864316  2.809367  4.566100
Ni  9.875600  0.985777  2.723136
Ni 11.687972  0.906642  4.582508
Ni 13.457620  0.876906  2.652523
Ni  2.611236  6.444365  4.517192
Ni  4.324310  4.611555  4.447806
Ni  4.442519  6.402831  2.668940
Ni  6.246948  6.390589  4.499200
Ni  8.076336  6.431246  2.759160
Ni  6.276883  4.650082  2.708394
Ni  9.870936  6.416596  4.529925
Ni 11.744106  4.546713  4.521719
Ni 11.694264  6.357698  2.708536
Ni 13.514637  6.394036  4.507065
Ni 13.515857  4.522473  2.751442
Ni  4.462514  9.996136  2.718222
Ni  2.629430  8.193137  2.749698
Ni  6.232918  9.966118  4.535627
Ni  8.043084  8.207069  4.466698
Ni  8.020686  9.981128  2.706692
Ni  6.243502  8.211084  2.683970
Ni  9.851821  9.998765  4.566117
Ni 11.694384  8.180877  4.595526
Ni  9.909141  8.261489  2.791714
Ni 13.544057 10.026331  4.580862
Ni 13.503252  8.216743  2.752983
Ni  2.675647 13.577720  8.221535
Ni  4.458174 11.789857  8.166624
Ni  4.513560 13.587030  6.361230
Ni  2.688599 11.820578  6.366276
Ni  6.212085 13.622876  8.203587
Ni  8.033946 11.789000  8.157514
Ni  9.715324 13.635968  4.580266
Ni  6.227529  9.979980  8.155573
Ni  9.849891 13.657611  8.205812
Ni 11.684365 11.827880  8.138786
Ni 11.657687 11.892230  4.591063
Ni  9.811818 11.830070  6.371559
Ni 13.553530  0.893974  6.376138
Ni 13.518278 11.825520  6.340009
Ni  4.415315  0.934065  8.201058
Ni  4.270260  2.776128  6.340371
Ni  7.986828  2.829032  6.373406
Ni  6.218791  0.974992  6.367282
Ni  9.924441  4.584097  9.922224
Ni 11.841796  0.871177  8.237401
Ni 11.746034  2.766812  6.320238
Ni  9.840379  1.004342  6.355708
Ni  2.617996  6.454207  8.180074
Ni  4.419654  4.588209  8.205989
Ni  4.441125  6.524738  6.342560
Ni  8.018485  4.564274  8.107187
Ni  8.044595  1.072464  8.237238
Ni  9.916233  6.358125  8.091090
Ni 11.743775  4.614909  8.148666
Ni  9.894269  4.571082  6.332180
Ni 13.591947  4.633254  6.350196
Ni  2.629533 10.032733  8.136490
Ni  4.475711  9.953842  6.309169
Ni  2.601864  8.233602  6.298801
Ni  8.012046 10.012416  6.372103
Ni  9.852295 10.001727  8.074587
Ni 13.530080  8.206632  6.346250
%ENDBLOCK POSITIONS_ABS

