#######################################################
#CASTEP cell file: /home/u2093113/Documents/kART/CASTEP/castep.cell
#Created using the Atomic Simulation Environment (ASE)#
#######################################################

%BLOCK LATTICE_CART
14.464828  0.000000  0.000000
 0.000000 14.464828  0.000000
 0.000000  0.000000 14.464828
%ENDBLOCK LATTICE_CART

%BLOCK POSITIONS_ABS
Al 13.646231 10.034033  8.152887
Al  9.730220  8.180852  6.346783
Al 11.702278 10.106950  6.287753
Al  6.077588  9.900747 11.683180
Al  6.379912  8.182091  6.370292
Al  6.041540  4.685228  6.379367
Al  8.110969  9.962274  9.866351
Al  4.301891  8.304177  8.153961
Al 13.600958  6.411358  8.227511
Al 11.739996  6.329246  6.260473
Al  8.071018  2.976737  9.961988
Al  6.057383  2.715891  8.190561
Al  2.612645  4.750477  6.361951
Al 13.634529 13.565986  8.162085
Al 10.027883  2.781804  8.092793
Al  8.035603 13.663776  6.549216
Al  2.634730  0.789428  6.385166
Al  2.643571  2.762915  8.340855
Al 11.794771 10.056567  2.890322
Al  4.427335  8.154997  4.454740
Al  2.563888 10.102892  4.540948
Al  9.868592  4.603685  2.802909
Al  8.010685  4.596345  4.614789
Al  2.549546  4.742865  2.640705
Al 13.643117  2.735305  4.658136
Al 11.715928  2.678808  2.861071
Al  8.020542  1.103965  4.543047
Al  4.611677  2.830355  2.741852
Al  2.570522  2.730028  4.520441
Al 13.618873 13.635374  4.554551
Al 13.541252  2.821896  8.102261
Al 11.563120  1.036269  0.848356
Al 11.531893 13.558287  2.809615
Al  8.034454 11.756945  4.509936
Al  4.491027 13.638014  2.931320
Al 13.556965  8.226123 13.635988
Al 11.628825  8.144468 11.729045
Al  9.910307  9.992579  0.965962
Al  8.092278  9.879806 13.521657
Al  2.541556  9.937795  0.945159
Al  9.955376  6.598544  0.981208
Al 11.863767  4.600754  0.845730
Al  8.103498  6.445233 13.593086
Al 13.606093  1.060433 13.466116
Al  6.271277  0.904511 13.555892
Al  8.185035  2.952889 13.632146
Al  4.371214  0.957909  0.864295
Al 13.642138 13.507689  0.958417
Al 11.573480 13.443070 13.448372
Al  6.283380 11.938961 13.542190
Al  4.444736 11.827478  0.956335
Al 11.645586 10.067917  9.891711
Al 11.716701  4.644534 11.759475
Al  8.125384  6.308607  9.777404
Al  6.168131  6.404721 11.809056
Al  4.268108  6.327937  9.977548
Al 11.598082 13.540114 10.041075
Al 11.555305 13.646888  6.382344
Al 13.576285  1.010019 10.131068
Al  8.171358  0.875913 11.665318
Ni  0.841783 11.821727 11.799240
Ni  0.859579 13.621579 10.011200
Ni  0.910236  0.952942 11.797845
Ni  0.819350  2.787195 10.014389
Ni  0.831833  4.587882 11.806380
Ni  0.858350  6.407908 10.011461
Ni  0.846573  8.222675 11.788422
Ni  0.865689 10.027008 10.019379
Ni  0.873308 11.799306  0.942727
Ni  0.863947 13.620414 13.599798
Ni  0.871058  0.977395  0.948660
Ni  0.862185  2.810401 13.613482
Ni  0.791960  4.599069  0.921853
Ni  0.812545  6.405556 13.598881
Ni  0.797589  8.204062  0.943338
Ni  0.836333 10.026961 13.577561
Ni  0.852924 11.833693  4.549570
Ni  0.910084 13.642586  2.737280
Ni  0.886091  0.951608  4.544549
Ni  0.844336  2.777709  2.713065
Ni  0.873743  4.607719  4.556631
Ni  0.795559  6.430509  2.736390
Ni  0.819007  8.218514  4.548861
Ni  0.808481 10.026279  2.743280
Ni  0.891822 11.834756  8.187917
Ni  0.899247 13.599846  6.379254
Ni  0.858742  0.958808  8.218520
Ni  0.990976  2.769751  6.401685
Ni  0.881282  4.584698  8.187325
Ni  0.840510  6.435271  6.342264
Ni  0.878653  8.217955  8.173066
Ni  0.876057 10.046805  6.340930
Ni  2.651161 13.614786 11.812089
Ni  4.441774 11.818534 11.791274
Ni  4.439591 13.613094 10.001665
Ni  2.630327 11.816837  9.996749
Ni  6.275407 13.625445 11.722173
Ni  8.017453 11.723803 11.756859
Ni  8.059905 13.600163  9.924960
Ni  6.234527 11.777348  9.967927
Ni  9.842789 13.548824 11.743729
Ni 11.692709 11.728774 11.751422
Ni  9.842430 11.789564  9.926186
Ni 13.501332 13.573951 11.798364
Ni 13.505728  2.847453 11.793624
Ni 13.522127 11.804097  9.989641
Ni  2.632805  2.774875 11.818879
Ni  4.451434  0.969551 11.796802
Ni  4.430638  2.786777 10.064372
Ni  2.637432  0.935190 10.034037
Ni  6.343766  2.783588 11.830095
Ni  9.906441  1.032153  9.950473
Ni  6.263938  1.005581 10.011398
Ni  9.881459  2.817886 11.754909
Ni 13.515956  4.617807 13.569764
Ni 11.745616  2.780765  9.972127
Ni  2.597730  6.384846 11.839943
Ni  4.435182  4.591796 11.821141
Ni  2.575568  4.587168 10.042787
Ni  8.078049  4.693297 11.745230
Ni  6.207545  4.615710  9.974858
Ni  9.896655  6.397481 11.726273
Ni 13.532372  4.596947  9.975731
Ni 11.719890  6.405296  9.895532
Ni 13.511390  6.439679 11.758404
Ni  2.640107 10.032908 11.811081
Ni  4.364881  8.160225 11.778183
Ni  4.368081 10.026910  9.952467
Ni  2.587788  8.225624  9.992121
Ni  6.183718  8.130781  9.939474
Ni  8.064469  8.142447 11.684086
Ni  6.142168  6.410565  8.178864
Ni  8.052620  8.154724  8.173796
Ni  9.892746  9.968233 11.720483
Ni 13.510150  8.258647  9.958962
Ni  9.926881  8.172884  9.875020
Ni 13.475868  9.980571 11.751005
Ni 11.724012  8.231290  8.062915
Ni  2.672677 13.624024  0.968326
Ni  4.430699 13.615810 13.573380
Ni  2.647237 11.812676 13.622225
Ni  6.259372 13.643656  0.970193
Ni  8.063633 11.784522  0.922204
Ni  8.110460 13.621707 13.570549
Ni  9.882492 13.608133  0.906576
Ni 11.718230 11.806292  0.944278
Ni  9.820391 11.725123 13.565032
Ni 13.504904 11.785381 13.580751
Ni  2.676127  2.805574  0.964296
Ni  4.465807  2.781090 13.593827
Ni  2.626084  0.974452 13.588381
Ni  6.284547  2.787097  0.883672
Ni  8.094178  0.992293  0.902847
Ni  9.951248  2.857395  0.997418
Ni  9.846163  0.988388 13.546558
Ni 11.677402  2.791734 13.548544
Ni 11.662801  0.967270 11.786988
Ni 13.474362  2.722588  0.936521
Ni  2.613791  6.445949  0.899760
Ni  4.463448  4.601385  0.920772
Ni  4.416473  6.406900 13.620836
Ni  2.632600  4.588679 13.620368
Ni  6.259684  6.415989  0.931686
Ni  8.105605  4.692034  0.962475
Ni  6.272385  4.626902 13.596326
Ni  9.899579  8.212085 13.572818
Ni  9.932446  4.695224 13.619343
Ni 13.496686  6.426875  0.970151
Ni 11.730667  6.456842 13.595044
Ni  4.450090  8.220138  0.932130
Ni  4.439455 10.039749 13.614313
Ni  2.615417  8.211143 13.583136
Ni  6.262710 10.032568  0.901497
Ni  8.056222  8.220179  0.957624
Ni  6.230611  8.210802 13.575772
Ni 11.758627  8.276054  0.999432
Ni 11.716620 10.010345 13.561269
Ni 13.516981 10.049520  0.960857
Ni  2.636634 13.590371  4.552942
Ni  4.481125 11.796779  4.569694
Ni  2.634720 11.832573  2.718611
Ni  6.354025 13.649331  4.616451
Ni  6.262049 11.804245  6.367555
Ni  8.065646 13.638859  2.709144
Ni  6.254718 11.816102  2.726431
Ni  9.850495 11.790500  2.743017
Ni 13.517561 11.861698  2.778080
Ni  4.477125  1.017370  4.596296
Ni  2.681876  0.982650  2.745397
Ni  6.219565  2.836942  4.635289
Ni  8.045095  2.832772  2.719448
Ni  6.258492  0.984773  2.703292
Ni  9.863129  2.799596  4.596406
Ni  9.869851  0.984913  2.727646
Ni 11.691198  0.891870  4.586981
Ni 13.472213  0.906096  2.687821
Ni  2.597807  6.449960  4.521410
Ni  4.338537  4.609184  4.486479
Ni  4.454919  6.409178  2.699962
Ni  6.237760  6.403627  4.537473
Ni  8.086249  6.420158  2.759160
Ni  6.279847  4.647146  2.719390
Ni  9.861266  6.398095  4.569387
Ni 11.737487  4.526292  4.542763
Ni 11.699203  6.382661  2.773935
Ni 13.530396  6.394791  4.544583
Ni 13.499885  4.533956  2.769913
Ni  4.444999 10.012419  2.731679
Ni  2.599871  8.206231  2.749401
Ni  6.235463  9.978502  4.543317
Ni  8.051313  8.185666  4.524370
Ni  8.038510  9.973249  2.739448
Ni  6.261681  8.210738  2.710885
Ni  9.861463 10.013963  4.579428
Ni 11.702538  8.206106  4.631100
Ni  9.909078  8.254591  2.824655
Ni 13.532090 10.048475  4.598119
Ni 13.502072  8.229714  2.794741
Ni  2.651709 13.574696  8.211236
Ni  4.446739 11.800297  8.159003
Ni  4.496456 13.602781  6.354360
Ni  2.634520 11.841960  6.363991
Ni  6.217685 13.639236  8.209423
Ni  8.042061 11.790782  8.176209
Ni  9.732290 13.653839  4.596172
Ni  6.218895  9.988397  8.156697
Ni  9.872263 13.651104  8.203077
Ni 11.720076 11.836887  8.139909
Ni 11.687181 11.915103  4.596489
Ni  9.820961 11.841390  6.379365
Ni 13.534444  0.905840  6.392363
Ni 13.512872 11.848996  6.352458
Ni  4.385100  0.930590  8.205758
Ni  4.269696  2.763218  6.352715
Ni  7.977911  2.938980  6.523480
Ni  6.235098  0.998890  6.390078
Ni  9.941467  4.594061  9.894219
Ni 11.823537  0.889462  8.231567
Ni 11.741699  2.741566  6.318839
Ni  9.835504  1.006496  6.375529
Ni  2.582541  6.456224  8.185462
Ni  4.371479  4.598780  8.193908
Ni  4.396535  6.519316  6.350547
Ni  8.024909  6.243835  6.460655
Ni  8.053903  1.092842  8.257213
Ni  9.957806  6.374577  8.096000
Ni 11.752166  4.618560  8.131998
Ni  9.926103  4.563546  6.357988
Ni 13.573094  4.603045  6.343368
Ni  2.593991 10.062047  8.142118
Ni  4.448483  9.978955  6.314048
Ni  2.574737  8.246011  6.310099
Ni  8.030702 10.031110  6.384188
Ni  9.878741 10.010397  8.081974
Ni 13.537375  8.213534  6.339546
%ENDBLOCK POSITIONS_ABS

