#######################################################
#CASTEP cell file: /home/u2093113/Documents/kART/CASTEP/castep.cell
#Created using the Atomic Simulation Environment (ASE)#
#######################################################

%BLOCK LATTICE_CART
14.464828  0.000000  0.000000
 0.000000 14.464828  0.000000
 0.000000  0.000000 14.464828
%ENDBLOCK LATTICE_CART

%BLOCK POSITIONS_ABS
Al 13.659846 10.032035  8.150764
Al  9.691161  8.154236  6.342240
Al 11.694215 10.082206  6.283272
Al  6.076959  9.901037 11.686085
Al  6.421597  8.140171  6.360714
Al  6.043011  4.688742  6.365576
Al  8.113803  9.965887  9.873637
Al  4.326006  8.296858  8.149374
Al 13.606106  6.420369  8.234068
Al 11.728169  6.325020  6.265122
Al  8.065495  2.956099  9.999730
Al  6.086259  2.721013  8.178050
Al  2.635189  4.754707  6.366956
Al 13.644602 13.542318  8.153633
Al 10.004031  2.781821  8.087277
Al  8.032256 13.666092  6.541872
Al  2.650927  0.788615  6.391403
Al  2.660858  2.766330  8.346482
Al 11.798091 10.055236  2.877598
Al  4.439085  8.145150  4.457123
Al  2.584186 10.095267  4.528895
Al  9.862208  4.609407  2.792967
Al  8.020700  4.624200  4.625963
Al  2.549325  4.739522  2.625112
Al 13.668816  2.741725  4.668315
Al 11.727220  2.688315  2.866892
Al  8.020010  1.088464  4.512097
Al  4.613916  2.829419  2.730639
Al  2.571864  2.730560  4.504943
Al 13.626019 13.634212  4.552795
Al 13.545937  2.830395  8.097147
Al 11.557347  1.042549  0.847041
Al 11.525668 13.555078  2.801745
Al  8.036445 11.748568  4.500856
Al  4.488566 13.634367  2.928354
Al 13.574502  8.226001 13.644629
Al 11.636914  8.142744 11.741544
Al  9.915391  9.990341  0.957886
Al  8.080611  9.887612 13.529387
Al  2.552877  9.922089  0.941912
Al  9.957445  6.598986  0.969973
Al 11.864714  4.591763  0.832532
Al  8.096739  6.447913 13.598123
Al 13.625353  1.067222 13.448397
Al  6.265667  0.888530 13.557390
Al  8.185599  2.945783 13.646127
Al  4.359583  0.951090  0.859592
Al 13.669684 13.500818  0.956532
Al 11.569950 13.453755 13.440030
Al  6.276971 11.952181 13.540528
Al  4.436393 11.831602  0.945326
Al 11.632668 10.069353  9.891646
Al 11.710797  4.636217 11.758671
Al  8.129505  6.334552  9.821690
Al  6.167145  6.411139 11.824508
Al  4.278339  6.324264  9.981569
Al 11.593008 13.537961 10.047880
Al 11.545181 13.644110  6.381455
Al 13.577698  1.008809 10.141854
Al  8.165621  0.848176 11.673426
Ni  0.843412 11.819808 11.788415
Ni  0.867606 13.616116 10.006391
Ni  0.921166  0.954147 11.783439
Ni  0.817860  2.791132 10.010976
Ni  0.842286  4.589788 11.799686
Ni  0.873780  6.410174 10.010410
Ni  0.850270  8.223913 11.784624
Ni  0.874744 10.023280 10.015712
Ni  0.887965 11.787190  0.934575
Ni  0.869025 13.613793 13.584694
Ni  0.872815  0.975718  0.934528
Ni  0.873058  2.819378 13.604179
Ni  0.790096  4.594896  0.916197
Ni  0.817914  6.401291 13.597707
Ni  0.808169  8.202457  0.948564
Ni  0.847033 10.028678 13.563319
Ni  0.858575 11.834313  4.549162
Ni  0.930451 13.635194  2.738517
Ni  0.895009  0.938350  4.538581
Ni  0.841594  2.766794  2.702418
Ni  0.886306  4.609910  4.552393
Ni  0.798813  6.430832  2.733548
Ni  0.815619  8.212837  4.539335
Ni  0.810744 10.021450  2.745513
Ni  0.903122 11.825015  8.182254
Ni  0.900671 13.586429  6.377885
Ni  0.848372  0.955611  8.222516
Ni  1.023768  2.765523  6.410921
Ni  0.892590  4.590598  8.189812
Ni  0.841390  6.437974  6.335505
Ni  0.885307  8.218525  8.173050
Ni  0.880798 10.040249  6.338201
Ni  2.659511 13.611315 11.801464
Ni  4.445631 11.813501 11.784475
Ni  4.443877 13.615053  9.999564
Ni  2.641915 11.811244  9.997393
Ni  6.261625 13.625355 11.715061
Ni  8.004710 11.724170 11.764979
Ni  8.040544 13.592355  9.918335
Ni  6.236306 11.771380  9.964679
Ni  9.828818 13.532330 11.743279
Ni 11.698740 11.727937 11.751585
Ni  9.830562 11.795434  9.926814
Ni 13.508852 13.579980 11.800569
Ni 13.513820  2.851385 11.791114
Ni 13.525698 11.801718  9.982737
Ni  2.641613  2.777819 11.813198
Ni  4.449373  0.975256 11.788306
Ni  4.450292  2.789632 10.063660
Ni  2.648134  0.940181 10.020039
Ni  6.347800  2.768252 11.854257
Ni  9.896761  1.029620  9.941562
Ni  6.269348  1.012124 10.009701
Ni  9.877798  2.799262 11.762471
Ni 13.525640  4.616000 13.556405
Ni 11.742470  2.776315  9.965744
Ni  2.600542  6.382948 11.840085
Ni  4.441865  4.588620 11.824286
Ni  2.594166  4.582254 10.046288
Ni  8.078720  4.688104 11.773446
Ni  6.217063  4.627743  9.995836
Ni  9.897991  6.394544 11.741033
Ni 13.535671  4.602153  9.976428
Ni 11.716171  6.402044  9.903045
Ni 13.523682  6.439990 11.757704
Ni  2.651589 10.030308 11.804526
Ni  4.368208  8.156585 11.782559
Ni  4.376475 10.023176  9.947367
Ni  2.608186  8.222652  9.995287
Ni  6.188666  8.125713  9.952802
Ni  8.076621  8.162767 11.701304
Ni  6.155993  6.408770  8.179451
Ni  8.048394  8.157668  8.190063
Ni  9.900071  9.982034 11.726916
Ni 13.508317  8.262887  9.964659
Ni  9.931558  8.174169  9.885682
Ni 13.484423  9.980150 11.755478
Ni 11.704292  8.223709  8.067277
Ni  2.665652 13.621302  0.946590
Ni  4.422819 13.619701 13.561688
Ni  2.652494 11.807891 13.605872
Ni  6.249930 13.638379  0.970411
Ni  8.063528 11.779863  0.917712
Ni  8.106015 13.621247 13.582408
Ni  9.885938 13.609821  0.898955
Ni 11.725333 11.818345  0.930671
Ni  9.822690 11.721621 13.568129
Ni 13.512554 11.790351 13.576247
Ni  2.675401  2.808782  0.957792
Ni  4.461075  2.770842 13.593626
Ni  2.621810  0.975488 13.580739
Ni  6.281038  2.777823  0.874916
Ni  8.095305  0.992464  0.904516
Ni  9.945888  2.870803  1.005777
Ni  9.844749  0.984952 13.548828
Ni 11.675442  2.786530 13.546924
Ni 11.653625  0.964974 11.782518
Ni 13.481598  2.717613  0.922887
Ni  2.611654  6.447994  0.891911
Ni  4.462680  4.596073  0.913102
Ni  4.409878  6.406860 13.619775
Ni  2.641342  4.590819 13.617104
Ni  6.245900  6.413474  0.926511
Ni  8.092599  4.703142  0.961073
Ni  6.264323  4.622081 13.596624
Ni  9.902929  8.218633 13.573835
Ni  9.930770  4.693815 13.623487
Ni 13.507828  6.416607  0.963426
Ni 11.742968  6.452771 13.591738
Ni  4.449969  8.218823  0.921271
Ni  4.437311 10.040379 13.610206
Ni  2.616135  8.210322 13.574381
Ni  6.254646 10.045049  0.890633
Ni  8.046327  8.215201  0.952432
Ni  6.226026  8.213062 13.580322
Ni 11.760515  8.275868  0.989379
Ni 11.728950 10.006952 13.562348
Ni 13.529433 10.059142  0.950488
Ni  2.659432 13.580241  4.557623
Ni  4.490420 11.789454  4.566602
Ni  2.653114 11.822354  2.707562
Ni  6.356773 13.637872  4.607738
Ni  6.262888 11.799291  6.363823
Ni  8.064683 13.629150  2.696323
Ni  6.250647 11.811959  2.722342
Ni  9.851154 11.779339  2.727099
Ni 13.523843 11.869780  2.782640
Ni  4.481540  1.015478  4.590440
Ni  2.696344  0.981552  2.735217
Ni  6.217592  2.844422  4.617817
Ni  8.038209  2.836081  2.713453
Ni  6.253211  0.978963  2.694963
Ni  9.863722  2.804482  4.581253
Ni  9.872726  0.985345  2.725391
Ni 11.689585  0.899256  4.584744
Ni 13.464917  0.891501  2.670172
Ni  2.604522  6.447163  4.519301
Ni  4.331424  4.610369  4.467142
Ni  4.448719  6.406005  2.684451
Ni  6.242354  6.397108  4.518337
Ni  8.081292  6.425702  2.759160
Ni  6.278365  4.648614  2.713892
Ni  9.866101  6.407345  4.549656
Ni 11.740796  4.536502  4.532241
Ni 11.696733  6.370179  2.741235
Ni 13.522517  6.394414  4.525824
Ni 13.507871  4.528214  2.760678
Ni  4.453756 10.004277  2.724951
Ni  2.614650  8.199684  2.749549
Ni  6.234190  9.972310  4.539472
Ni  8.047198  8.196368  4.495534
Ni  8.029598  9.977188  2.723070
Ni  6.252591  8.210911  2.697428
Ni  9.856642 10.006364  4.572773
Ni 11.698461  8.193492  4.613313
Ni  9.909109  8.258040  2.808184
Ni 13.538073 10.037403  4.589490
Ni 13.502662  8.223228  2.773862
Ni  2.663678 13.576208  8.216385
Ni  4.452456 11.795077  8.162813
Ni  4.505008 13.594905  6.357795
Ni  2.661560 11.831269  6.365133
Ni  6.214885 13.631056  8.206505
Ni  8.038004 11.789891  8.166861
Ni  9.723807 13.644904  4.588219
Ni  6.223212  9.984188  8.156135
Ni  9.861077 13.654357  8.204445
Ni 11.702221 11.832383  8.139347
Ni 11.672434 11.903667  4.593776
Ni  9.816390 11.835730  6.375462
Ni 13.543987  0.899907  6.384251
Ni 13.515575 11.837258  6.346234
Ni  4.400208  0.932328  8.203408
Ni  4.269978  2.769673  6.346543
Ni  7.982369  2.884006  6.448443
Ni  6.226944  0.986941  6.378680
Ni  9.932954  4.589079  9.908222
Ni 11.832666  0.880320  8.234484
Ni 11.743867  2.754189  6.319538
Ni  9.837942  1.005419  6.365619
Ni  2.600269  6.455216  8.182768
Ni  4.395567  4.593494  8.199949
Ni  4.418830  6.522027  6.346554
Ni  8.021697  5.404055  7.283921
Ni  8.049249  1.082653  8.247226
Ni  9.937019  6.366351  8.093545
Ni 11.747970  4.616735  8.140332
Ni  9.910186  4.567314  6.345084
Ni 13.582521  4.618150  6.346782
Ni  2.611762 10.047390  8.139304
Ni  4.462097  9.966398  6.311609
Ni  2.588301  8.239807  6.304450
Ni  8.021374 10.021763  6.378145
Ni  9.865518 10.006062  8.078281
Ni 13.533728  8.210083  6.342898
%ENDBLOCK POSITIONS_ABS

