%block lattice_abc 
  14.46482773 14.46482773 14.46482773 #lattice params 
 90.0  90.0  90.0 
     %endblock lattice_abc 
     fix_all_cell : true 
     %BLOCK POSITIONS_ABS 
Al 13.646231 10.034033  8.152887
 Al  9.730220  8.180852  6.346783
 Al 11.702278 10.106950  6.287753
 Al  6.077588  9.900747 11.683180
 Al  6.379912  8.182091  6.370292
 Al  6.041540  4.685228  6.379367
 Al  8.110969  9.962274  9.866351
 Al  4.301891  8.304177  8.153961
 Al 13.600958  6.411358  8.227511
 Al 11.739996  6.329246  6.260473
 Al  8.071018  2.976737  9.961988
 Al  6.057383  2.715891  8.190561
 Al  2.612645  4.750477  6.361951
 Al 13.634529 13.565986  8.162085
 Al 10.027883  2.781804  8.092793
 Al  8.035603 13.663776  6.549216
 Al  2.634730  0.789428  6.385166
 Al  2.643571  2.762915  8.340855
 Al 11.794771 10.056567  2.890322
 Al  4.427335  8.154997  4.454740
 Al  2.563888 10.102892  4.540948
 Al  9.868592  4.603685  2.802909
 Al  8.010685  4.596345  4.614789
 Al  2.549546  4.742865  2.640705
 Al 13.643117  2.735305  4.658136
 Al 11.715928  2.678808  2.861071
 Al  8.020542  1.103965  4.543047
 Al  4.611677  2.830355  2.741852
 Al  2.570522  2.730028  4.520441
 Al 13.618873 13.635374  4.554551
 Al 13.541252  2.821896  8.102261
 Al 11.563120  1.036269  0.848356
 Al 11.531893 13.558287  2.809615
 Al  8.034454 11.756945  4.509936
 Al  4.491027 13.638014  2.931320
 Al 13.556965  8.226123 13.635988
 Al 11.628825  8.144468 11.729045
 Al  9.910307  9.992579  0.965962
 Al  8.092278  9.879806 13.521657
 Al  2.541556  9.937795  0.945159
 Al  9.955376  6.598544  0.981208
 Al 11.863767  4.600754  0.845730
 Al  8.103498  6.445233 13.593086
 Al 13.606093  1.060433 13.466116
 Al  6.271277  0.904511 13.555892
 Al  8.185035  2.952889 13.632146
 Al  4.371214  0.957909  0.864295
 Al 13.642138 13.507689  0.958417
 Al 11.573480 13.443070 13.448372
 Al  6.283380 11.938961 13.542190
 Al  4.444736 11.827478  0.956335
 Al 11.645586 10.067917  9.891711
 Al 11.716701  4.644534 11.759475
 Al  8.125384  6.308607  9.777404
 Al  6.168131  6.404721 11.809056
 Al  4.268108  6.327937  9.977548
 Al 11.598082 13.540114 10.041075
 Al 11.555305 13.646888  6.382344
 Al 13.576285  1.010019 10.131068
 Al  8.171358  0.875913 11.665318
 Ni  0.841783 11.821727 11.799240
 Ni  0.859579 13.621579 10.011200
 Ni  0.910236  0.952942 11.797845
 Ni  0.819350  2.787195 10.014389
 Ni  0.831833  4.587882 11.806380
 Ni  0.858350  6.407908 10.011461
 Ni  0.846573  8.222675 11.788422
 Ni  0.865689 10.027008 10.019379
 Ni  0.873308 11.799306  0.942727
 Ni  0.863947 13.620414 13.599798
 Ni  0.871058  0.977395  0.948660
 Ni  0.862185  2.810401 13.613482
 Ni  0.791960  4.599069  0.921853
 Ni  0.812545  6.405556 13.598881
 Ni  0.797589  8.204062  0.943338
 Ni  0.836333 10.026961 13.577561
 Ni  0.852924 11.833693  4.549570
 Ni  0.910084 13.642586  2.737280
 Ni  0.886091  0.951608  4.544549
 Ni  0.844336  2.777709  2.713065
 Ni  0.873743  4.607719  4.556631
 Ni  0.795559  6.430509  2.736390
 Ni  0.819007  8.218514  4.548861
 Ni  0.808481 10.026279  2.743280
 Ni  0.891822 11.834756  8.187917
 Ni  0.899247 13.599846  6.379254
 Ni  0.858742  0.958808  8.218520
 Ni  0.990976  2.769751  6.401685
 Ni  0.881282  4.584698  8.187325
 Ni  0.840510  6.435271  6.342264
 Ni  0.878653  8.217955  8.173066
 Ni  0.876057 10.046805  6.340930
 Ni  2.651161 13.614786 11.812089
 Ni  4.441774 11.818534 11.791274
 Ni  4.439591 13.613094 10.001665
 Ni  2.630327 11.816837  9.996749
 Ni  6.275407 13.625445 11.722173
 Ni  8.017453 11.723803 11.756859
 Ni  8.059905 13.600163  9.924960
 Ni  6.234527 11.777348  9.967927
 Ni  9.842789 13.548824 11.743729
 Ni 11.692709 11.728774 11.751422
 Ni  9.842430 11.789564  9.926186
 Ni 13.501332 13.573951 11.798364
 Ni 13.505728  2.847453 11.793624
 Ni 13.522127 11.804097  9.989641
 Ni  2.632805  2.774875 11.818879
 Ni  4.451434  0.969551 11.796802
 Ni  4.430638  2.786777 10.064372
 Ni  2.637432  0.935190 10.034037
 Ni  6.343766  2.783588 11.830095
 Ni  9.906441  1.032153  9.950473
 Ni  6.263938  1.005581 10.011398
 Ni  9.881459  2.817886 11.754909
 Ni 13.515956  4.617807 13.569764
 Ni 11.745616  2.780765  9.972127
 Ni  2.597730  6.384846 11.839943
 Ni  4.435182  4.591796 11.821141
 Ni  2.575568  4.587168 10.042787
 Ni  8.078049  4.693297 11.745230
 Ni  6.207545  4.615710  9.974858
 Ni  9.896655  6.397481 11.726273
 Ni 13.532372  4.596947  9.975731
 Ni 11.719890  6.405296  9.895532
 Ni 13.511390  6.439679 11.758404
 Ni  2.640107 10.032908 11.811081
 Ni  4.364881  8.160225 11.778183
 Ni  4.368081 10.026910  9.952467
 Ni  2.587788  8.225624  9.992121
 Ni  6.183718  8.130781  9.939474
 Ni  8.064469  8.142447 11.684086
 Ni  6.142168  6.410565  8.178864
 Ni  8.052620  8.154724  8.173796
 Ni  9.892746  9.968233 11.720483
 Ni 13.510150  8.258647  9.958962
 Ni  9.926881  8.172884  9.875020
 Ni 13.475868  9.980571 11.751005
 Ni 11.724012  8.231290  8.062915
 Ni  2.672677 13.624024  0.968326
 Ni  4.430699 13.615810 13.573380
 Ni  2.647237 11.812676 13.622225
 Ni  6.259372 13.643656  0.970193
 Ni  8.063633 11.784522  0.922204
 Ni  8.110460 13.621707 13.570549
 Ni  9.882492 13.608133  0.906576
 Ni 11.718230 11.806292  0.944278
 Ni  9.820391 11.725123 13.565032
 Ni 13.504904 11.785381 13.580751
 Ni  2.676127  2.805574  0.964296
 Ni  4.465807  2.781090 13.593827
 Ni  2.626084  0.974452 13.588381
 Ni  6.284547  2.787097  0.883672
 Ni  8.094178  0.992293  0.902847
 Ni  9.951248  2.857395  0.997418
 Ni  9.846163  0.988388 13.546558
 Ni 11.677402  2.791734 13.548544
 Ni 11.662801  0.967270 11.786988
 Ni 13.474362  2.722588  0.936521
 Ni  2.613791  6.445949  0.899760
 Ni  4.463448  4.601385  0.920772
 Ni  4.416473  6.406900 13.620836
 Ni  2.632600  4.588679 13.620368
 Ni  6.259684  6.415989  0.931686
 Ni  8.105605  4.692034  0.962475
 Ni  6.272385  4.626902 13.596326
 Ni  9.899579  8.212085 13.572818
 Ni  9.932446  4.695224 13.619343
 Ni 13.496686  6.426875  0.970151
 Ni 11.730667  6.456842 13.595044
 Ni  4.450090  8.220138  0.932130
 Ni  4.439455 10.039749 13.614313
 Ni  2.615417  8.211143 13.583136
 Ni  6.262710 10.032568  0.901497
 Ni  8.056222  8.220179  0.957624
 Ni  6.230611  8.210802 13.575772
 Ni 11.758627  8.276054  0.999432
 Ni 11.716620 10.010345 13.561269
 Ni 13.516981 10.049520  0.960857
 Ni  2.636634 13.590371  4.552942
 Ni  4.481125 11.796779  4.569694
 Ni  2.634720 11.832573  2.718611
 Ni  6.354025 13.649331  4.616451
 Ni  6.262049 11.804245  6.367555
 Ni  8.065646 13.638859  2.709144
 Ni  6.254718 11.816102  2.726431
 Ni  9.850495 11.790500  2.743017
 Ni 13.517561 11.861698  2.778080
 Ni  4.477125  1.017370  4.596296
 Ni  2.681876  0.982650  2.745397
 Ni  6.219565  2.836942  4.635289
 Ni  8.045095  2.832772  2.719448
 Ni  6.258492  0.984773  2.703292
 Ni  9.863129  2.799596  4.596406
 Ni  9.869851  0.984913  2.727646
 Ni 11.691198  0.891870  4.586981
 Ni 13.472213  0.906096  2.687821
 Ni  2.597807  6.449960  4.521410
 Ni  4.338537  4.609184  4.486479
 Ni  4.454919  6.409178  2.699962
 Ni  6.237760  6.403627  4.537473
 Ni  8.086249  6.420158  2.759160
 Ni  6.279847  4.647146  2.719390
 Ni  9.861266  6.398095  4.569387
 Ni 11.737487  4.526292  4.542763
 Ni 11.699203  6.382661  2.773935
 Ni 13.530396  6.394791  4.544583
 Ni 13.499885  4.533956  2.769913
 Ni  4.444999 10.012419  2.731679
 Ni  2.599871  8.206231  2.749401
 Ni  6.235463  9.978502  4.543317
 Ni  8.051313  8.185666  4.524370
 Ni  8.038510  9.973249  2.739448
 Ni  6.261681  8.210738  2.710885
 Ni  9.861463 10.013963  4.579428
 Ni 11.702538  8.206106  4.631100
 Ni  9.909078  8.254591  2.824655
 Ni 13.532090 10.048475  4.598119
 Ni 13.502072  8.229714  2.794741
 Ni  2.651709 13.574696  8.211236
 Ni  4.446739 11.800297  8.159003
 Ni  4.496456 13.602781  6.354360
 Ni  2.634520 11.841960  6.363991
 Ni  6.217685 13.639236  8.209423
 Ni  8.042061 11.790782  8.176209
 Ni  9.732290 13.653839  4.596172
 Ni  6.218895  9.988397  8.156697
 Ni  9.872263 13.651104  8.203077
 Ni 11.720076 11.836887  8.139909
 Ni 11.687181 11.915103  4.596489
 Ni  9.820961 11.841390  6.379365
 Ni 13.534444  0.905840  6.392363
 Ni 13.512872 11.848996  6.352458
 Ni  4.385100  0.930590  8.205758
 Ni  4.269696  2.763218  6.352715
 Ni  7.977911  2.938980  6.523480
 Ni  6.235098  0.998890  6.390078
 Ni  9.941467  4.594061  9.894219
 Ni 11.823537  0.889462  8.231567
 Ni 11.741699  2.741566  6.318839
 Ni  9.835504  1.006496  6.375529
 Ni  2.582541  6.456224  8.185462
 Ni  4.371479  4.598780  8.193908
 Ni  4.396535  6.519316  6.350547
 Ni  8.024909  6.243835  6.460655
 Ni  8.053903  1.092842  8.257213
 Ni  9.957806  6.374577  8.096000
 Ni 11.752166  4.618560  8.131998
 Ni  9.926103  4.563546  6.357988
 Ni 13.573094  4.603045  6.343368
 Ni  2.593991 10.062047  8.142118
 Ni  4.448483  9.978955  6.314048
 Ni  2.574737  8.246011  6.310099
 Ni  8.030702 10.031110  6.384188
 Ni  9.878741 10.010397  8.081974
 Ni 13.537375  8.213534  6.339546
 %ENDBLOCK POSITIONS_ABS
 
%block positions_abs_product 
     ang 
Al 13.673462 10.030037  8.148641
 Al  9.652101  8.127620  6.337698
 Al 11.686152 10.057462  6.278791
 Al  6.076330  9.901328 11.688990
 Al  6.463283  8.098251  6.351137
 Al  6.044482  4.692255  6.351785
 Al  8.116637  9.969500  9.880922
 Al  4.350120  8.289538  8.144786
 Al 13.611253  6.429380  8.240625
 Al 11.716342  6.320794  6.269772
 Al  8.059973  2.935460 10.037471
 Al  6.115136  2.726136  8.165539
 Al  2.657734  4.758936  6.371962
 Al 13.654674 13.518651  8.145181
 Al  9.980178  2.781838  8.081761
 Al  8.028909 13.668407  6.534528
 Al  2.667125  0.787803  6.397640
 Al  2.678144  2.769745  8.352109
 Al 11.801412 10.053905  2.864874
 Al  4.450836  8.135304  4.459506
 Al  2.604483 10.087642  4.516842
 Al  9.855824  4.615130  2.783025
 Al  8.030715  4.652054  4.637137
 Al  2.549105  4.736178  2.609519
 Al 13.694516  2.748145  4.678494
 Al 11.738513  2.697822  2.872714
 Al  8.019478  1.072963  4.481147
 Al  4.616156  2.828483  2.719426
 Al  2.573206  2.731092  4.489446
 Al 13.633165 13.633051  4.551038
 Al 13.550622  2.838893  8.092033
 Al 11.551574  1.048830  0.845727
 Al 11.519442 13.551869  2.793875
 Al  8.038436 11.740190  4.491776
 Al  4.486105 13.630720  2.925389
 Al 13.592040  8.225879 13.653269
 Al 11.645003  8.141020 11.754044
 Al  9.920476  9.988104  0.949810
 Al  8.068945  9.895417 13.537117
 Al  2.564197  9.906384  0.938666
 Al  9.959515  6.599429  0.958737
 Al 11.865660  4.582772  0.819334
 Al  8.089979  6.450593 13.603160
 Al 13.644612  1.074011 13.430679
 Al  6.260057  0.872548 13.558889
 Al  8.186163  2.938676 13.660108
 Al  4.347951  0.944272  0.854889
 Al 13.697230 13.493947  0.954647
 Al 11.566419 13.464441 13.431688
 Al  6.270562 11.965401 13.538866
 Al  4.428050 11.835725  0.934318
 Al 11.619749 10.070790  9.891581
 Al 11.704892  4.627900 11.757867
 Al  8.133627  6.360498  9.865977
 Al  6.166158  6.417558 11.839960
 Al  4.288570  6.320590  9.985590
 Al 11.587934 13.535808 10.054686
 Al 11.535057 13.641333  6.380565
 Al 13.579111  1.007598 10.152639
 Al  8.159883  0.820440 11.681535
 Ni  0.845041 11.817889 11.777589
 Ni  0.875633 13.610653 10.001582
 Ni  0.932097  0.955352 11.769033
 Ni  0.816371  2.795070 10.007562
 Ni  0.852739  4.591694 11.792993
 Ni  0.889211  6.412439 10.009358
 Ni  0.853967  8.225152 11.780825
 Ni  0.883799 10.019551 10.012045
 Ni  0.902622 11.775073  0.926423
 Ni  0.874104 13.607171 13.569589
 Ni  0.874572  0.974041  0.920395
 Ni  0.883931  2.828355 13.594876
 Ni  0.788231  4.590723  0.910541
 Ni  0.823284  6.397025 13.596534
 Ni  0.818750  8.200852  0.953791
 Ni  0.857732 10.030394 13.549078
 Ni  0.864227 11.834933  4.548754
 Ni  0.950819 13.627801  2.739755
 Ni  0.903927  0.925092  4.532614
 Ni  0.838852  2.755879  2.691772
 Ni  0.898869  4.612101  4.548154
 Ni  0.802066  6.431156  2.730705
 Ni  0.812231  8.207160  4.529809
 Ni  0.813007 10.016621  2.747745
 Ni  0.914422 11.815274  8.176591
 Ni  0.902095 13.573011  6.376517
 Ni  0.838001  0.952415  8.226511
 Ni  1.056559  2.761294  6.420158
 Ni  0.903897  4.596499  8.192299
 Ni  0.842269  6.440677  6.328746
 Ni  0.891962  8.219096  8.173033
 Ni  0.885539 10.033692  6.335472
 Ni  2.667861 13.607843 11.790840
 Ni  4.449487 11.808468 11.777677
 Ni  4.448162 13.617013  9.997464
 Ni  2.653504 11.805650  9.998036
 Ni  6.247842 13.625264 11.707949
 Ni  7.991966 11.724536 11.773099
 Ni  8.021184 13.584547  9.911710
 Ni  6.238086 11.765412  9.961430
 Ni  9.814848 13.515836 11.742830
 Ni 11.704771 11.727100 11.751748
 Ni  9.818694 11.801304  9.927442
 Ni 13.516372 13.586009 11.802774
 Ni 13.521911  2.855318 11.788604
 Ni 13.529270 11.799339  9.975834
 Ni  2.650422  2.780763 11.807518
 Ni  4.447312  0.980961 11.779809
 Ni  4.469947  2.792487 10.062948
 Ni  2.658835  0.945172 10.006040
 Ni  6.351833  2.752916 11.878418
 Ni  9.887081  1.027086  9.932650
 Ni  6.274758  1.018666 10.008005
 Ni  9.874137  2.780638 11.770034
 Ni 13.535323  4.614193 13.543045
 Ni 11.739324  2.771865  9.959360
 Ni  2.603354  6.381050 11.840227
 Ni  4.448548  4.585444 11.827432
 Ni  2.612764  4.577340 10.049789
 Ni  8.079391  4.682912 11.801661
 Ni  6.226581  4.639776 10.016813
 Ni  9.899327  6.391607 11.755793
 Ni 13.538970  4.607359  9.977126
 Ni 11.712452  6.398793  9.910559
 Ni 13.535974  6.440300 11.757005
 Ni  2.663071 10.027709 11.797971
 Ni  4.371535  8.152945 11.786934
 Ni  4.384870 10.019443  9.942267
 Ni  2.628583  8.219680  9.998453
 Ni  6.193613  8.120645  9.966130
 Ni  8.088773  8.183087 11.718521
 Ni  6.169817  6.406976  8.180038
 Ni  8.044168  8.160612  8.206329
 Ni  9.907396  9.995836 11.733350
 Ni 13.506484  8.267126  9.970357
 Ni  9.936234  8.175454  9.896344
 Ni 13.492977  9.979730 11.759951
 Ni 11.684572  8.216127  8.071639
 Ni  2.658628 13.618579  0.924854
 Ni  4.414939 13.623592 13.549996
 Ni  2.657751 11.803106 13.589519
 Ni  6.240488 13.633102  0.970629
 Ni  8.063424 11.775205  0.913221
 Ni  8.101571 13.620787 13.594267
 Ni  9.889384 13.611510  0.891334
 Ni 11.732435 11.830398  0.917065
 Ni  9.824990 11.718119 13.571227
 Ni 13.520205 11.795322 13.571743
 Ni  2.674676  2.811991  0.951288
 Ni  4.456342  2.760593 13.593425
 Ni  2.617537  0.976524 13.573098
 Ni  6.277529  2.768549  0.866160
 Ni  8.096433  0.992635  0.906185
 Ni  9.940529  2.884212  1.014136
 Ni  9.843335  0.981517 13.551098
 Ni 11.673482  2.781326 13.545303
 Ni 11.644448  0.962678 11.778049
 Ni 13.488835  2.712638  0.909253
 Ni  2.609517  6.450040  0.884063
 Ni  4.461912  4.590761  0.905431
 Ni  4.403283  6.406820 13.618714
 Ni  2.650085  4.592959 13.613840
 Ni  6.232116  6.410958  0.921335
 Ni  8.079592  4.714250  0.959671
 Ni  6.256261  4.617260 13.596923
 Ni  9.906279  8.225181 13.574852
 Ni  9.929093  4.692406 13.627631
 Ni 13.518970  6.406339  0.956701
 Ni 11.755269  6.448700 13.588432
 Ni  4.449847  8.217508  0.910411
 Ni  4.435167 10.041009 13.606098
 Ni  2.616854  8.209501 13.565627
 Ni  6.246583 10.057531  0.879768
 Ni  8.036431  8.210224  0.947240
 Ni  6.221441  8.215322 13.584872
 Ni 11.762403  8.275682  0.979327
 Ni 11.741281 10.003559 13.563427
 Ni 13.541885 10.068765  0.940120
 Ni  2.682231 13.570111  4.562303
 Ni  4.499715 11.782129  4.563511
 Ni  2.671508 11.812135  2.696512
 Ni  6.359520 13.626413  4.599025
 Ni  6.263727 11.794337  6.360090
 Ni  8.063721 13.619440  2.683502
 Ni  6.246576 11.807817  2.718254
 Ni  9.851812 11.768178  2.711181
 Ni 13.530126 11.877863  2.787200
 Ni  4.485956  1.013586  4.584584
 Ni  2.710813  0.980454  2.725038
 Ni  6.215618  2.851901  4.600345
 Ni  8.031324  2.839390  2.707459
 Ni  6.247929  0.973152  2.686633
 Ni  9.864316  2.809367  4.566100
 Ni  9.875600  0.985777  2.723136
 Ni 11.687972  0.906642  4.582508
 Ni 13.457620  0.876906  2.652523
 Ni  2.611236  6.444365  4.517192
 Ni  4.324310  4.611555  4.447806
 Ni  4.442519  6.402831  2.668940
 Ni  6.246948  6.390589  4.499200
 Ni  8.076336  6.431246  2.759160
 Ni  6.276883  4.650082  2.708394
 Ni  9.870936  6.416596  4.529925
 Ni 11.744106  4.546713  4.521719
 Ni 11.694264  6.357698  2.708536
 Ni 13.514637  6.394036  4.507065
 Ni 13.515857  4.522473  2.751442
 Ni  4.462514  9.996136  2.718222
 Ni  2.629430  8.193137  2.749698
 Ni  6.232918  9.966118  4.535627
 Ni  8.043084  8.207069  4.466698
 Ni  8.020686  9.981128  2.706692
 Ni  6.243502  8.211084  2.683970
 Ni  9.851821  9.998765  4.566117
 Ni 11.694384  8.180877  4.595526
 Ni  9.909141  8.261489  2.791714
 Ni 13.544057 10.026331  4.580862
 Ni 13.503252  8.216743  2.752983
 Ni  2.675647 13.577720  8.221535
 Ni  4.458174 11.789857  8.166624
 Ni  4.513560 13.587030  6.361230
 Ni  2.688599 11.820578  6.366276
 Ni  6.212085 13.622876  8.203587
 Ni  8.033946 11.789000  8.157514
 Ni  9.715324 13.635968  4.580266
 Ni  6.227529  9.979980  8.155573
 Ni  9.849891 13.657611  8.205812
 Ni 11.684365 11.827880  8.138786
 Ni 11.657687 11.892230  4.591063
 Ni  9.811818 11.830070  6.371559
 Ni 13.553530  0.893974  6.376138
 Ni 13.518278 11.825520  6.340009
 Ni  4.415315  0.934065  8.201058
 Ni  4.270260  2.776128  6.340371
 Ni  7.986828  2.829032  6.373406
 Ni  6.218791  0.974992  6.367282
 Ni  9.924441  4.584097  9.922224
 Ni 11.841796  0.871177  8.237401
 Ni 11.746034  2.766812  6.320238
 Ni  9.840379  1.004342  6.355708
 Ni  2.617996  6.454207  8.180074
 Ni  4.419654  4.588209  8.205989
 Ni  4.441125  6.524738  6.342560
 Ni  8.018485  4.564274  8.107187
 Ni  8.044595  1.072464  8.237238
 Ni  9.916233  6.358125  8.091090
 Ni 11.743775  4.614909  8.148666
 Ni  9.894269  4.571082  6.332180
 Ni 13.591947  4.633254  6.350196
 Ni  2.629533 10.032733  8.136490
 Ni  4.475711  9.953842  6.309169
 Ni  2.601864  8.233602  6.298801
 Ni  8.012046 10.012416  6.372103
 Ni  9.852295 10.001727  8.074587
 Ni 13.530080  8.206632  6.346250
%endblock positions_abs_product 
%block positions_abs_intermediate 
     ang 
Al 13.659846 10.032035  8.150764
 Al  9.691161  8.154236  6.342240
 Al 11.694215 10.082206  6.283272
 Al  6.076959  9.901037 11.686085
 Al  6.421597  8.140171  6.360714
 Al  6.043011  4.688742  6.365576
 Al  8.113803  9.965887  9.873637
 Al  4.326006  8.296858  8.149374
 Al 13.606106  6.420369  8.234068
 Al 11.728169  6.325020  6.265122
 Al  8.065495  2.956099  9.999730
 Al  6.086259  2.721013  8.178050
 Al  2.635189  4.754707  6.366956
 Al 13.644602 13.542318  8.153633
 Al 10.004031  2.781821  8.087277
 Al  8.032256 13.666092  6.541872
 Al  2.650927  0.788615  6.391403
 Al  2.660858  2.766330  8.346482
 Al 11.798091 10.055236  2.877598
 Al  4.439085  8.145150  4.457123
 Al  2.584186 10.095267  4.528895
 Al  9.862208  4.609407  2.792967
 Al  8.020700  4.624200  4.625963
 Al  2.549325  4.739522  2.625112
 Al 13.668816  2.741725  4.668315
 Al 11.727220  2.688315  2.866892
 Al  8.020010  1.088464  4.512097
 Al  4.613916  2.829419  2.730639
 Al  2.571864  2.730560  4.504943
 Al 13.626019 13.634212  4.552795
 Al 13.545937  2.830395  8.097147
 Al 11.557347  1.042549  0.847041
 Al 11.525668 13.555078  2.801745
 Al  8.036445 11.748568  4.500856
 Al  4.488566 13.634367  2.928354
 Al 13.574502  8.226001 13.644629
 Al 11.636914  8.142744 11.741544
 Al  9.915391  9.990341  0.957886
 Al  8.080611  9.887612 13.529387
 Al  2.552877  9.922089  0.941912
 Al  9.957445  6.598986  0.969973
 Al 11.864714  4.591763  0.832532
 Al  8.096739  6.447913 13.598123
 Al 13.625353  1.067222 13.448397
 Al  6.265667  0.888530 13.557390
 Al  8.185599  2.945783 13.646127
 Al  4.359583  0.951090  0.859592
 Al 13.669684 13.500818  0.956532
 Al 11.569950 13.453755 13.440030
 Al  6.276971 11.952181 13.540528
 Al  4.436393 11.831602  0.945326
 Al 11.632668 10.069353  9.891646
 Al 11.710797  4.636217 11.758671
 Al  8.129505  6.334552  9.821690
 Al  6.167145  6.411139 11.824508
 Al  4.278339  6.324264  9.981569
 Al 11.593008 13.537961 10.047880
 Al 11.545181 13.644110  6.381455
 Al 13.577698  1.008809 10.141854
 Al  8.165621  0.848176 11.673426
 Ni  0.843412 11.819808 11.788415
 Ni  0.867606 13.616116 10.006391
 Ni  0.921166  0.954147 11.783439
 Ni  0.817860  2.791132 10.010976
 Ni  0.842286  4.589788 11.799686
 Ni  0.873780  6.410174 10.010410
 Ni  0.850270  8.223913 11.784624
 Ni  0.874744 10.023280 10.015712
 Ni  0.887965 11.787190  0.934575
 Ni  0.869025 13.613793 13.584694
 Ni  0.872815  0.975718  0.934528
 Ni  0.873058  2.819378 13.604179
 Ni  0.790096  4.594896  0.916197
 Ni  0.817914  6.401291 13.597707
 Ni  0.808169  8.202457  0.948564
 Ni  0.847033 10.028678 13.563319
 Ni  0.858575 11.834313  4.549162
 Ni  0.930451 13.635194  2.738517
 Ni  0.895009  0.938350  4.538581
 Ni  0.841594  2.766794  2.702418
 Ni  0.886306  4.609910  4.552393
 Ni  0.798813  6.430832  2.733548
 Ni  0.815619  8.212837  4.539335
 Ni  0.810744 10.021450  2.745513
 Ni  0.903122 11.825015  8.182254
 Ni  0.900671 13.586429  6.377885
 Ni  0.848372  0.955611  8.222516
 Ni  1.023768  2.765523  6.410921
 Ni  0.892590  4.590598  8.189812
 Ni  0.841390  6.437974  6.335505
 Ni  0.885307  8.218525  8.173050
 Ni  0.880798 10.040249  6.338201
 Ni  2.659511 13.611315 11.801464
 Ni  4.445631 11.813501 11.784475
 Ni  4.443877 13.615053  9.999564
 Ni  2.641915 11.811244  9.997393
 Ni  6.261625 13.625355 11.715061
 Ni  8.004710 11.724170 11.764979
 Ni  8.040544 13.592355  9.918335
 Ni  6.236306 11.771380  9.964679
 Ni  9.828818 13.532330 11.743279
 Ni 11.698740 11.727937 11.751585
 Ni  9.830562 11.795434  9.926814
 Ni 13.508852 13.579980 11.800569
 Ni 13.513820  2.851385 11.791114
 Ni 13.525698 11.801718  9.982737
 Ni  2.641613  2.777819 11.813198
 Ni  4.449373  0.975256 11.788306
 Ni  4.450292  2.789632 10.063660
 Ni  2.648134  0.940181 10.020039
 Ni  6.347800  2.768252 11.854257
 Ni  9.896761  1.029620  9.941562
 Ni  6.269348  1.012124 10.009701
 Ni  9.877798  2.799262 11.762471
 Ni 13.525640  4.616000 13.556405
 Ni 11.742470  2.776315  9.965744
 Ni  2.600542  6.382948 11.840085
 Ni  4.441865  4.588620 11.824286
 Ni  2.594166  4.582254 10.046288
 Ni  8.078720  4.688104 11.773446
 Ni  6.217063  4.627743  9.995836
 Ni  9.897991  6.394544 11.741033
 Ni 13.535671  4.602153  9.976428
 Ni 11.716171  6.402044  9.903045
 Ni 13.523682  6.439990 11.757704
 Ni  2.651589 10.030308 11.804526
 Ni  4.368208  8.156585 11.782559
 Ni  4.376475 10.023176  9.947367
 Ni  2.608186  8.222652  9.995287
 Ni  6.188666  8.125713  9.952802
 Ni  8.076621  8.162767 11.701304
 Ni  6.155993  6.408770  8.179451
 Ni  8.048394  8.157668  8.190063
 Ni  9.900071  9.982034 11.726916
 Ni 13.508317  8.262887  9.964659
 Ni  9.931558  8.174169  9.885682
 Ni 13.484423  9.980150 11.755478
 Ni 11.704292  8.223709  8.067277
 Ni  2.665652 13.621302  0.946590
 Ni  4.422819 13.619701 13.561688
 Ni  2.652494 11.807891 13.605872
 Ni  6.249930 13.638379  0.970411
 Ni  8.063528 11.779863  0.917712
 Ni  8.106015 13.621247 13.582408
 Ni  9.885938 13.609821  0.898955
 Ni 11.725333 11.818345  0.930671
 Ni  9.822690 11.721621 13.568129
 Ni 13.512554 11.790351 13.576247
 Ni  2.675401  2.808782  0.957792
 Ni  4.461075  2.770842 13.593626
 Ni  2.621810  0.975488 13.580739
 Ni  6.281038  2.777823  0.874916
 Ni  8.095305  0.992464  0.904516
 Ni  9.945888  2.870803  1.005777
 Ni  9.844749  0.984952 13.548828
 Ni 11.675442  2.786530 13.546924
 Ni 11.653625  0.964974 11.782518
 Ni 13.481598  2.717613  0.922887
 Ni  2.611654  6.447994  0.891911
 Ni  4.462680  4.596073  0.913102
 Ni  4.409878  6.406860 13.619775
 Ni  2.641342  4.590819 13.617104
 Ni  6.245900  6.413474  0.926511
 Ni  8.092599  4.703142  0.961073
 Ni  6.264323  4.622081 13.596624
 Ni  9.902929  8.218633 13.573835
 Ni  9.930770  4.693815 13.623487
 Ni 13.507828  6.416607  0.963426
 Ni 11.742968  6.452771 13.591738
 Ni  4.449969  8.218823  0.921271
 Ni  4.437311 10.040379 13.610206
 Ni  2.616135  8.210322 13.574381
 Ni  6.254646 10.045049  0.890633
 Ni  8.046327  8.215201  0.952432
 Ni  6.226026  8.213062 13.580322
 Ni 11.760515  8.275868  0.989379
 Ni 11.728950 10.006952 13.562348
 Ni 13.529433 10.059142  0.950488
 Ni  2.659432 13.580241  4.557623
 Ni  4.490420 11.789454  4.566602
 Ni  2.653114 11.822354  2.707562
 Ni  6.356773 13.637872  4.607738
 Ni  6.262888 11.799291  6.363823
 Ni  8.064683 13.629150  2.696323
 Ni  6.250647 11.811959  2.722342
 Ni  9.851154 11.779339  2.727099
 Ni 13.523843 11.869780  2.782640
 Ni  4.481540  1.015478  4.590440
 Ni  2.696344  0.981552  2.735217
 Ni  6.217592  2.844422  4.617817
 Ni  8.038209  2.836081  2.713453
 Ni  6.253211  0.978963  2.694963
 Ni  9.863722  2.804482  4.581253
 Ni  9.872726  0.985345  2.725391
 Ni 11.689585  0.899256  4.584744
 Ni 13.464917  0.891501  2.670172
 Ni  2.604522  6.447163  4.519301
 Ni  4.331424  4.610369  4.467142
 Ni  4.448719  6.406005  2.684451
 Ni  6.242354  6.397108  4.518337
 Ni  8.081292  6.425702  2.759160
 Ni  6.278365  4.648614  2.713892
 Ni  9.866101  6.407345  4.549656
 Ni 11.740796  4.536502  4.532241
 Ni 11.696733  6.370179  2.741235
 Ni 13.522517  6.394414  4.525824
 Ni 13.507871  4.528214  2.760678
 Ni  4.453756 10.004277  2.724951
 Ni  2.614650  8.199684  2.749549
 Ni  6.234190  9.972310  4.539472
 Ni  8.047198  8.196368  4.495534
 Ni  8.029598  9.977188  2.723070
 Ni  6.252591  8.210911  2.697428
 Ni  9.856642 10.006364  4.572773
 Ni 11.698461  8.193492  4.613313
 Ni  9.909109  8.258040  2.808184
 Ni 13.538073 10.037403  4.589490
 Ni 13.502662  8.223228  2.773862
 Ni  2.663678 13.576208  8.216385
 Ni  4.452456 11.795077  8.162813
 Ni  4.505008 13.594905  6.357795
 Ni  2.661560 11.831269  6.365133
 Ni  6.214885 13.631056  8.206505
 Ni  8.038004 11.789891  8.166861
 Ni  9.723807 13.644904  4.588219
 Ni  6.223212  9.984188  8.156135
 Ni  9.861077 13.654357  8.204445
 Ni 11.702221 11.832383  8.139347
 Ni 11.672434 11.903667  4.593776
 Ni  9.816390 11.835730  6.375462
 Ni 13.543987  0.899907  6.384251
 Ni 13.515575 11.837258  6.346234
 Ni  4.400208  0.932328  8.203408
 Ni  4.269978  2.769673  6.346543
 Ni  7.982369  2.884006  6.448443
 Ni  6.226944  0.986941  6.378680
 Ni  9.932954  4.589079  9.908222
 Ni 11.832666  0.880320  8.234484
 Ni 11.743867  2.754189  6.319538
 Ni  9.837942  1.005419  6.365619
 Ni  2.600269  6.455216  8.182768
 Ni  4.395567  4.593494  8.199949
 Ni  4.418830  6.522027  6.346554
 Ni  8.021697  5.404055  7.283921
 Ni  8.049249  1.082653  8.247226
 Ni  9.937019  6.366351  8.093545
 Ni 11.747970  4.616735  8.140332
 Ni  9.910186  4.567314  6.345084
 Ni 13.582521  4.618150  6.346782
 Ni  2.611762 10.047390  8.139304
 Ni  4.462097  9.966398  6.311609
 Ni  2.588301  8.239807  6.304450
 Ni  8.021374 10.021763  6.378145
 Ni  9.865518 10.006062  8.078281
 Ni 13.533728  8.210083  6.342898
%endblock positions_abs_intermediate 
     kpoint_mp_grid 1 1 1 
     fix_com : false