#######################################################
#CASTEP cell file: /home/u2093113/Documents/kART/barriers/CASTEP/castep.cell
#Created using the Atomic Simulation Environment (ASE)#
#######################################################

%BLOCK LATTICE_CART
14.464828  0.000000  0.000000
 0.000000 14.464828  0.000000
 0.000000  0.000000 14.464828
%ENDBLOCK LATTICE_CART

%BLOCK POSITIONS_ABS
Ni  4.568127  6.272143  2.680369
Ni  6.394457  4.478154  2.687224
Ni  6.384357  6.299442  0.894585
Al  4.603253  4.474877  0.901510
Ni  8.170385  6.301253  2.703056
Ni  9.975812  4.502138  2.694778
Ni  9.975403  6.307696  0.886053
Al  8.186542  4.498064  0.882658
Ni 11.769433  6.309265  2.695955
Ni 13.561813  4.502144  2.693750
Ni 13.570810  6.308177  0.887293
Al 11.774167  4.506330  0.883257
Ni  4.511611  9.972515  2.742210
Ni  6.376161  8.116846  2.689641
Ni  6.377976  9.913851  0.900221
Al  4.591497  8.119718  0.921136
Ni  8.188232  9.913031  2.694348
Ni  9.971417  8.106449  2.697460
Ni  9.981830  9.908271  0.882579
Al  8.176732  8.107197  0.889558
Ni 11.775285  9.909308  2.690479
Ni 13.574197  8.108696  2.693208
Ni 13.586794  9.912669  0.879671
Al 11.779576  8.110187  0.883425
Ni  4.576446 13.517772  2.664157
Ni  6.408127 11.730599  2.680573
Ni  6.416327 13.541248  0.868074
Al  4.664445 11.740140  0.842437
Ni  8.207922 13.532654  2.682511
Ni  9.983702 11.716921  2.690041
Ni  9.991789 13.526518  0.875944
Al  8.193915 11.716692  0.876696
Ni 11.773155 13.525832  2.686384
Ni 13.570094 11.716873  2.686704
Ni 13.571808 13.528383  0.880711
Al 11.783205 11.713352  0.878019
Ni  4.576675  2.670520  2.682682
Ni  6.414361  0.870329  2.672310
Ni  6.397357  2.679776  0.877898
Al  4.620674  0.871822  0.887145
Ni  8.197332  2.685479  2.686611
Ni  9.990021  0.878339  2.687784
Ni  9.988948  2.694868  0.879257
Al  8.206305  0.880646  0.871386
Ni 11.769672  2.694633  2.691281
Ni 13.556421  0.880032  2.685247
Ni 13.563131  2.692163  0.883763
Al 11.777511  0.877600  0.878400
Ni  2.909758  6.285505  8.029020
Ni  6.333636  4.491470  6.295625
Ni  6.351767  6.274206  4.517861
Al  4.595075  4.462099  4.480203
Ni  8.153673  6.300827  6.310923
Ni  9.969895  4.503916  6.314325
Ni  9.965115  6.305789  4.506935
Al  8.174029  4.491238  4.505285
Ni 11.768744  6.310964  6.311672
Ni 13.565086  4.505927  6.303986
Ni 13.568067  6.309768  4.501976
Al 11.768224  4.505123  4.503471
Ni  4.503051  9.971290  6.242463
Ni  6.327879  8.102070  6.299298
Ni  6.382260  9.923448  4.496359
Al  4.649149  8.040605  4.481332
Ni  8.170458  9.905442  6.309793
Ni  9.964485  8.105920  6.312337
Ni  9.974672  9.909171  4.505232
Al  8.159549  8.103715  4.505529
Ni 11.775084  9.908651  6.315656
Ni 13.576048  8.111121  6.309572
Ni 13.569140  9.909205  4.500455
Al 11.771451  8.109260  4.504084
Ni  4.561028 13.552032  6.339885
Ni  6.394217 11.735763  6.318793
Ni  6.428989 13.551571  4.498737
Al  4.694247 11.800983  4.501903
Ni  8.205021 13.531977  6.317664
Ni  9.979789 11.714039  6.315088
Ni  9.985992 13.528844  4.502241
Al  8.194056 11.722634  4.503355
Ni 11.774331 13.525485  6.313194
Ni 13.572393 11.713972  6.309743
Ni 13.553539 13.528047  4.492486
Al 11.774633 11.714174  4.501789
Ni  4.574238  2.618346  6.307068
Ni  6.399735  0.864742  6.316011
Ni  6.400112  2.669930  4.493621
Al  4.650847  0.861128  4.445873
Ni  8.181915  2.693610  6.309989
Ni  9.987087  0.880842  6.316066
Ni  9.980844  2.692437  4.503469
Al  8.204320  0.880517  4.500905
Ni 11.768185  2.696842  6.312291
Ni 13.556719  0.883206  6.302362
Ni 13.558358  2.695409  4.498064
Al 11.771099  0.879040  4.500239
Ni  4.564677  6.306831  9.916732
Ni  6.377626  4.503437  9.930838
Ni  6.312463  6.303680  8.079972
Al  4.628892  4.459048  8.097211
Ni  8.152675  6.311299  9.912845
Ni  9.972583  4.511614  9.922360
Ni  9.965973  6.309475  8.116567
Al  8.156379  4.508705  8.113462
Ni 11.780072  6.315426  9.922990
Ni 13.574335  4.507251  9.920681
Ni 13.577016  6.316474  8.112886
Al 11.775153  4.508638  8.117874
Ni  4.551357  9.916826  9.940250
Ni  6.353299  8.111228  9.926812
Ni  6.366739  9.916828  8.106790
Al  4.594918  8.136764  8.091583
Ni  8.174495  9.900536  9.925128
Ni  9.969218  8.105364  9.920789
Ni  9.971982  9.904139  8.118846
Al  8.146165  8.102869  8.110975
Ni 11.783515  9.907540  9.925645
Ni 13.598295  8.118312  9.927741
Ni 13.593238  9.913042  8.123263
Al 11.780147  8.111899  8.119925
Ni  4.595545 13.520717  9.954502
Ni  6.400268 11.711180  9.948487
Ni  6.423237 13.526633  8.136914
Al  4.656804 11.727999  8.157837
Ni  8.206317 13.522033  9.938730
Ni  9.985280 11.709360  9.927067
Ni  9.987479 13.526165  8.125014
Al  8.187486 11.710917  8.124887
Ni 11.785387 13.522608  9.928157
Ni 13.593149 11.712513  9.930202
Ni 13.572057 13.523941  8.116066
Al 11.782780 11.711821  8.122468
Ni  4.607342  2.679266  9.940049
Ni  6.432382  0.872953  9.956571
Ni  6.414048  2.681041  8.123416
Al  4.692711  0.867450  8.200843
Ni  8.193294  2.701160  9.935146
Ni  9.988709  0.880445  9.928932
Ni  9.974324  2.698547  8.120689
Al  8.199953  0.878361  8.126471
Ni 11.774715  2.698814  9.922952
Ni 13.566758  0.880613  9.925478
Ni 13.566127  2.696813  8.111361
Al 11.778608  0.878837  8.120810
Ni  4.566678  6.304153 13.584887
Ni  6.378980  4.494487 13.553688
Ni  6.358778  6.312549 11.743508
Al  4.619924  4.493679 11.750044
Ni  8.174320  6.307638 13.543226
Ni  9.982888  4.507724 13.536393
Ni  9.972174  6.310292 11.727113
Al  8.172653  4.511918 11.735476
Ni 11.778828  6.312753 13.536961
Ni 13.569981  4.503878 13.543566
Ni 13.587370  6.318170 11.732712
Al 11.782953  4.511414 11.728061
Ni  4.564433  9.928232 13.555236
Ni  6.367495  8.110789 13.559138
Ni  6.375152  9.904614 11.741027
Al  4.580570  8.114399 11.760537
Ni  8.181805  9.902863 13.543996
Ni  9.978422  8.106302 13.539680
Ni  9.980224  9.902486 11.731447
Al  8.166227  8.102937 11.733556
Ni 11.784352  9.909613 13.537061
Ni 13.587831  8.114666 13.539609
Ni 13.595647  9.913159 11.733458
Al 11.783820  8.110659 11.729230
Ni  4.581706 13.541692 13.526692
Ni  6.406626 11.719916 13.529722
Ni  6.409786 13.525081 11.742478
Al  4.598376 11.720750 11.744665
Ni  8.205947 13.530624 13.534673
Ni  9.986948 11.712049 13.537494
Ni  9.996165 13.525300 11.732925
Al  8.196366 11.707622 11.736340
Ni 11.786108 13.522844 13.535860
Ni 13.592397 11.715516 13.537290
Ni 13.587900 13.521835 11.736214
Al 11.787164 11.711533 11.731772
Ni  4.572635  2.665807 13.544940
Ni  6.401222  0.878131 13.534918
Ni  6.398137  2.691625 11.746366
Al  4.625213  0.869504 11.725513
Ni  8.196508  2.695295 13.539138
Ni  9.997886  0.880133 13.534899
Ni  9.988806  2.701216 11.731481
Al  8.206917  0.881399 11.742020
Ni 11.778594  2.696424 13.536326
Ni 13.570609  0.878131 13.542490
Ni 13.570231  2.695250 11.731620
Al 11.786340  0.877382 11.730517
Al  1.099848  2.664548 13.486562
Ni  0.866532  6.278556  2.652198
Ni  2.752070  4.454029  2.688222
Ni  0.930421  8.099047  0.867664
Ni  0.974078  4.430202  0.862633
Ni  0.903327  9.931115  2.630408
Ni  2.743948  8.101083  2.669328
Ni  2.777473  9.963469  0.925694
Ni  0.925979 11.790153  0.878529
Al  0.998594 13.558972 13.556131
Ni  0.886785 13.609080  2.657223
Ni  0.954599 11.753856  4.459440
Ni  2.780356 13.565493  0.874401
Ni  0.913310  0.919775  0.837281
Ni  0.897593  2.631773  2.659684
Ni  2.757484  0.855748  2.689532
Ni  2.783858  2.658056  0.892428
Al  0.953248 10.012059 13.627547
Ni  2.864051  4.465786  6.270098
Ni  2.795099  6.286652  4.461446
Ni  0.974821  4.466847  4.474977
Ni  0.935665  9.841590  6.312154
Ni  2.833144  8.083252  6.247907
Ni  0.893111  8.020794  4.441528
Ni  0.906361 13.594259  6.337728
Ni  2.768687 13.573299  4.518562
Al  1.063159  9.923602  9.928588
Ni  0.962519  2.704089  6.327963
Ni  2.766547  2.621616  4.498815
Al  1.158478  6.223589  9.866442
Al  1.093143  8.060915 11.836744
Ni  2.864257  4.466266  9.911738
Ni  1.032214  4.526815  8.089377
Al  0.942179  0.910802  4.490862
Al  2.717538  0.862387  6.408630
Ni  2.805220  8.111175  9.928393
Ni  2.781594  9.929560  8.077595
Ni  1.023548  8.023851  8.110735
Al  2.617325 11.802418  6.331747
Ni  0.953097 13.508066  9.923590
Ni  2.794771 11.732469  9.900098
Ni  2.773367 13.531089  8.143210
Ni  0.919529 11.680567  8.121127
Al  2.601853  9.813731  4.464652
Ni  0.991637  2.733963  9.948196
Ni  2.802791  0.868022  9.908453
Ni  2.794118  2.667589  8.131285
Ni  0.951241  0.900708  8.180479
Ni  0.980308  6.269403 13.559052
Ni  2.824659  4.479219 13.562153
Ni  2.823868  6.286175 11.763048
Ni  1.032221  4.507317 11.731304
Al  1.109025  6.258269  6.268608
Ni  2.748765  6.275507  0.919776
Ni  2.763952  9.928806 11.773879
Ni  2.788503  8.129315 13.622389
Al  2.629270 11.838841  2.658514
Ni  2.782289 11.753825 13.572801
Ni  2.779675 13.536961 11.722269
Ni  0.994108 11.734130 11.726320
Ni  0.982061  0.870192 11.698784
Ni  2.802087  0.859776 13.533205
Ni  2.814050  2.671462 11.712244
%ENDBLOCK POSITIONS_ABS

FIX_ALL_CELL: TRUE
KPOINT_MP_GRID: 1 1 1
