#######################################################
#CASTEP cell file: /home/u2093113/Documents/kART/CASTEP/castep.cell
#Created using the Atomic Simulation Environment (ASE)#
#######################################################

%BLOCK LATTICE_CART
14.464828  0.000000  0.000000
 0.000000 14.464828  0.000000
 0.000000  0.000000 14.464828
%ENDBLOCK LATTICE_CART

%BLOCK POSITIONS_ABS
Al  8.230205  4.448457  0.927461
Al 11.848960  4.462156  0.915606
Al  8.226801  8.095993  0.967512
Al 11.858350  8.086336  0.927611
Al  8.311605 11.698152  0.851024
Al 11.883344 11.688018  0.900286
Al  8.250785  0.853709  0.918997
Al 11.862419  0.853110  0.899448
Al  8.225066  4.430320  4.517362
Al 11.848994  4.473467  4.518062
Al  8.288520  8.001772  4.497627
Al 11.855347  8.074503  4.527490
Al  8.399092 11.803760  4.538468
Al 11.874812 11.681970  4.531189
Al  8.305273  0.823834  4.457058
Al 11.884679  0.863110  4.513785
Al  8.180914  4.472074  8.129679
Al 11.826855  4.488404  8.137689
Al  8.166164  8.058521  8.129799
Al 11.820450  8.070253  8.128860
Al  8.300775 11.706520  8.202511
Al 11.891216 11.670958  8.149724
Al  8.350323  0.831627  8.243300
Al 11.837595  0.852678  8.152307
Al  8.259001  4.460147 11.781359
Al 11.807346  4.486089 11.761834
Al  8.208976  8.081162 11.788873
Al 11.826687  8.080394 11.762462
Al  8.234026 11.693316 11.779868
Al 11.841127 11.668215 11.777893
Al  8.252438  0.844931 11.755130
Al 11.879200  0.842949 11.775247
Al  4.764865  2.654028 13.542691
Al  0.824497  0.870730 11.741798
Al  2.804421  2.758638 11.633768
Al  4.663812 13.541262 13.633665
Al  2.781159 13.410940 11.669502
Al  4.608672  9.988316 13.690159
Al  0.988242  9.875542 13.549223
Al  2.857385  2.700148  8.265757
Al  0.868572 11.665298  8.273358
Al  4.729393  9.970197  9.962933
Al  2.792293  9.652874  8.154805
Al  4.927570  6.195255  9.779084
Al  4.712939  8.026966 11.866204
Al  2.769245  6.274039  8.038108
Al  0.820622  6.267915  9.957665
Al  4.545974  0.852574  4.525474
Al  6.374282  0.843509  6.445035
Al  2.640345  0.784410  2.691559
Al  0.915268  2.673728  6.278785
Al  6.249841 11.797228  6.381256
Al  0.898922 13.641245  6.286596
Al  2.888396 11.700230  6.237797
Al  6.236962  9.790524  4.485342
Al  4.887072  6.225779  6.370327
Al  2.727040  6.151672  4.527346
Al  2.697558  2.716180  0.877315
Al  6.288058 11.821409  2.654076
Al  2.762695 11.714088  2.709827
Al  2.800519  6.177317  0.822042
Al  2.760705  6.169197 11.927873
Al  2.767004  8.196516  2.689076
Ni  8.215203  6.242752  2.703025
Ni 10.046877  4.455235  2.723032
Ni 10.046835  6.275690  0.938988
Ni 11.861271  6.275253  2.724508
Ni 13.661974  4.478014  2.703032
Ni 13.640291  6.289334  0.913789
Ni  8.175824  9.976695  2.826952
Ni 10.043964  8.086014  2.729175
Ni 10.052180  9.880999  0.938990
Ni 11.867311  9.878020  2.733626
Ni 13.685625  8.076641  2.726948
Ni 13.674639  9.885322  0.923927
Ni  8.250735 13.462961  2.709398
Ni 10.081418 11.694052  2.706204
Ni 10.055343 13.507633  0.904055
Ni 11.870956 13.507275  2.693065
Ni 13.657883 11.687405  2.719236
Ni 13.672246 13.494518  0.890406
Ni  8.229980  2.650465  2.729230
Ni 10.077245  0.847689  2.701421
Ni 10.041039  2.656438  0.910451
Ni 11.855874  2.662428  2.694276
Ni 13.682981  0.857106  2.686605
Ni 13.668100  2.661404  0.899464
Ni  8.162844  6.245829  6.324872
Ni 10.014712  4.466174  6.332518
Ni 10.041052  6.249140  4.519049
Ni 11.823667  6.284618  6.312452
Ni 13.649571  4.492585  6.320620
Ni 13.674732  6.276081  4.511222
Ni  8.170190  9.994953  6.224919
Ni  9.987957  8.081398  6.330782
Ni 10.054379  9.887008  4.531272
Ni 11.849906  9.860154  6.337172
Ni 13.674162  8.076146  6.323456
Ni 13.684987  9.882148  4.541751
Ni  8.239411 13.524180  6.362880
Ni 10.081088 11.700428  6.355545
Ni 10.112165 13.532540  4.528281
Ni 11.889815 13.486361  6.343260
Ni 13.704585 11.673896  6.340740
Ni 13.652984 13.506951  4.495597
Ni  8.245419  2.566333  6.343160
Ni 10.086737  0.833517  6.336339
Ni 10.056670  2.650398  4.529974
Ni 11.849764  2.692273  6.336501
Ni 13.609140  0.887055  6.357513
Ni 13.624783  2.671072  4.482423
Ni  8.167451  6.264873  9.935819
Ni 10.017805  4.479583  9.940656
Ni  9.979100  6.275817  8.130140
Ni 11.838106  6.285184  9.945067
Ni 13.622990  4.445715  9.947720
Ni 13.614783  6.272430  8.096495
Ni  8.203740  9.889219  9.957419
Ni  9.993303  8.074808  9.939549
Ni 10.005290  9.874824  8.124005
Ni 11.816401  9.866899  9.942754
Ni 13.635685  8.104141  9.948117
Ni 13.662809  9.840321  8.143775
Ni  8.259993 13.504336  9.970746
Ni 10.054447 11.678819  9.972842
Ni 10.078160 13.487114  8.152718
Ni 11.855325 13.485724  9.964891
Ni 13.631018 11.654499 10.002361
Ni 13.665436 13.520273  8.167175
Ni  8.268675  2.646279  9.947994
Ni 10.087542  0.840090  9.989425
Ni 10.050888  2.668901  8.138124
Ni 11.826126  2.667796  9.954152
Ni 13.632672  0.872094  9.924901
Ni 13.635772  2.677465  8.157926
Ni  8.238698  6.280855 13.619067
Ni 10.033591  4.467664 13.589993
Ni 10.016956  6.288016 11.763158
Ni 11.818394  6.273190 13.588903
Ni 13.643101  4.480197 13.570030
Ni 13.612165  6.282849 11.799667
Ni  8.228653  9.873318 13.604408
Ni 10.035704  8.084298 13.596962
Ni 10.021736  9.869654 11.769721
Ni 11.858480  9.874098 13.574699
Ni 13.650316  8.066931 13.572007
Ni 13.650022  9.854917 11.742837
Ni  8.242163 13.516174 13.559459
Ni 10.060682 11.681564 13.564449
Ni 10.058813 13.495754 11.772862
Ni 11.847834 13.499507 13.571463
Ni 13.671644 11.701756 13.541403
Ni 13.642560 13.470425 11.751320
Ni  8.228853  2.654427 13.580310
Ni 10.049761  0.850865 13.569149
Ni 10.045957  2.659063 11.772626
Ni 11.846390  2.669195 13.576020
Ni 13.636901  0.842095 13.581328
Ni 13.602723  2.704081 11.758007
Ni  1.011330  6.282586  2.695006
Ni  2.786781  4.436284  2.703860
Ni  0.947415  4.488342  0.886410
Ni  4.551605  6.254768  2.714159
Ni  6.378234  4.430388  2.725972
Ni  4.592704  8.042307  0.925735
Ni  4.635062  4.411344  0.917742
Ni  0.980494  8.053849  0.912093
Ni  0.955938  9.902945  2.714750
Ni  4.605334  9.900625  2.661679
Ni  6.376854  8.046910  2.717026
Ni  6.431402  9.922059  0.960142
Ni  2.751664  9.911219  0.887798
Ni  0.941510 13.476686  2.718452
Ni  4.537245 11.753398  0.911426
Ni  2.748763 13.529683  0.861109
Ni  4.557451 13.598168  2.697881
Ni  4.611318 11.737969  4.478770
Ni  6.433757 13.539626  0.915993
Ni  0.969846  2.674775  2.693481
Ni  4.563776  0.903109  0.903662
Ni  0.986588  0.849506  0.847399
Ni  4.572189  2.611205  2.709311
Ni  6.413193  0.828312  2.692167
Ni  6.421587  2.634610  0.955429
Ni  2.779289  0.891432 13.472351
Ni  0.956672  6.244265  6.307691
Ni  2.825080  4.431969  6.341668
Ni  0.952047  4.446722  4.493215
Ni  6.438928  4.337378  6.301725
Ni  6.406260  6.244113  4.472741
Ni  4.605693  4.424419  4.517536
Ni  1.054198  9.906287  6.369682
Ni  2.823082  7.987940  6.285061
Ni  2.808607  9.887360  4.522169
Ni  1.016044  8.080625  4.523226
Ni  4.585589  9.843106  6.323999
Ni  6.453985  8.118780  6.298468
Ni  4.529984  7.999190  4.503119
Ni  0.930899  0.891657  4.499563
Ni  0.979640 11.687939  4.547565
Ni  4.553832 13.584473  6.357895
Ni  6.406705 13.548447  4.536947
Ni  2.752250 13.538948  4.535268
Ni  2.750052  0.926454  6.392833
Ni  2.784259  2.660757  4.489838
Ni  4.613711  2.643378  6.323292
Ni  6.406344  2.558903  4.521397
Ni  0.968103  4.465858  8.131440
Ni  6.468659  4.367524  9.978618
Ni  4.685254  4.449775  8.118148
Ni  1.022828  9.797144  9.965293
Ni  0.963756  8.016311  8.130745
Ni  2.901785  7.872772 10.041609
Ni  6.393687  8.127294  9.983112
Ni  6.444770  9.913573  8.096291
Ni  4.690390  8.047883  8.108679
Ni  0.959672 13.515420  9.965944
Ni  2.782409 11.613578  9.905623
Ni  2.698216 13.475301  8.096837
Ni  4.595040 13.482239  9.918097
Ni  6.432082 11.733299  9.963658
Ni  6.410554 13.504685  8.183215
Ni  4.517355 11.685976  8.160244
Ni  0.960236  2.715217  9.962295
Ni  2.760501  0.830795 10.011094
Ni  0.980572  0.911352  8.205043
Ni  4.654751  2.661387  9.966977
Ni  6.410134  0.839502  9.953618
Ni  6.426471  2.626617  8.160404
Ni  4.566714  0.835681  8.202201
Ni  0.939815  6.274641 13.584455
Ni  2.820364  4.351567 13.546727
Ni  2.825131  4.677782  9.933646
Ni  0.942972  4.481243 11.762356
Ni  4.650467  6.212730 13.583568
Ni  6.445477  4.486408 13.577707
Ni  6.457215  6.255568 11.783123
Ni  4.673024  4.466186 11.745277
Ni  0.971098 11.716286  0.890659
Ni  2.827723  8.085240 13.559171
Ni  2.893575  9.859575 11.723270
Ni  1.002601  8.047931 11.761821
Ni  6.394109  6.249801  0.938166
Ni  6.395136  9.902571 11.834726
Ni  6.412011  8.067291 13.638732
Ni  0.988069 13.507331 13.512768
Ni  2.768183 11.731243 13.544247
Ni  0.986317 11.641402 11.711790
Ni  6.433200 11.716370 13.598124
Ni  6.420051 13.506220 11.735457
Ni  4.638947 11.749653 11.777186
Ni  0.941243  2.665536 13.521365
Ni  4.631837  0.827831 11.730870
Ni  6.447034  0.839937 13.557306
Ni  6.472252  2.633548 11.739328
%ENDBLOCK POSITIONS_ABS

