#######################################################
#CASTEP cell file: /home/u2093113/Documents/kART/CASTEP/castep.cell
#Created using the Atomic Simulation Environment (ASE)#
#######################################################

%BLOCK LATTICE_CART
14.464828  0.000000  0.000000
 0.000000 14.464828  0.000000
 0.000000  0.000000 14.464828
%ENDBLOCK LATTICE_CART

%BLOCK POSITIONS_ABS
Al  8.223402  4.456703  0.928499
Al 11.846069  4.470428  0.913987
Al  8.220659  8.092442  0.970019
Al 11.857040  8.085244  0.926296
Al  8.308645 11.693757  0.845935
Al 11.880635 11.685957  0.894501
Al  8.247527  0.858901  0.912725
Al 11.859712  0.857230  0.892412
Al  8.221035  4.436783  4.527706
Al 11.855278  4.475421  4.506188
Al  8.282572  8.001568  4.509530
Al 11.864104  8.079336  4.519760
Al  8.403751 11.808544  4.533014
Al 11.877710 11.683845  4.522694
Al  8.308559  0.822099  4.451530
Al 11.885911  0.865326  4.501529
Al  8.240377  4.421908  8.115565
Al 11.836758  4.488343  8.131231
Al  8.218488  8.115367  8.110128
Al 11.832896  8.074918  8.124221
Al  8.301907 11.706296  8.199330
Al 11.898067 11.677011  8.149772
Al  8.351867  0.835311  8.239939
Al 11.845857  0.851365  8.151111
Al  8.250800  4.472141 11.761839
Al 11.813290  4.491934 11.764711
Al  8.202195  8.075097 11.767669
Al 11.832289  8.078210 11.763333
Al  8.229112 11.691464 11.775272
Al 11.841633 11.668116 11.778427
Al  8.244827  0.848845 11.751773
Al 11.874955  0.847832 11.778358
Al  4.767259  2.657331 13.543801
Al  0.824552  0.873325 11.746552
Al  2.799855  2.759403 11.633112
Al  4.667797 13.543202 13.632162
Al  2.781467 13.415014 11.672891
Al  4.610711  9.984812 13.689532
Al  0.994752  9.875294 13.547309
Al  2.840255  2.679873  8.261854
Al  0.863352 11.676184  8.274342
Al  4.732834  9.963615  9.950227
Al  2.777275  9.680645  8.157822
Al  4.817835  6.180517  9.851389
Al  4.707709  8.034588 11.865366
Al  2.822810  6.264275  7.959130
Al  0.830468  6.270215  9.937803
Al  4.547803  0.849263  4.519912
Al  6.376261  0.838930  6.442502
Al  2.642076  0.783659  2.683907
Al  0.904134  2.665365  6.270159
Al  6.252167 11.806618  6.381204
Al  0.893366 13.644254  6.280643
Al  2.884761 11.708217  6.233372
Al  6.241631  9.801491  4.488703
Al  5.588321  6.232973  7.106440
Al  2.785657  6.154018  4.586281
Al  2.704446  2.724283  0.883001
Al  6.290394 11.823700  2.651777
Al  2.764648 11.719818  2.703133
Al  2.807764  6.179499  0.828179
Al  2.746874  6.171015 11.930441
Al  2.779958  8.189864  2.701950
Ni  8.198651  6.245019  2.724027
Ni 10.040926  4.459818  2.721339
Ni 10.035731  6.279933  0.941526
Ni 11.864052  6.279039  2.720094
Ni 13.667987  4.482889  2.699598
Ni 13.649205  6.291194  0.919702
Ni  8.176096  9.975004  2.827731
Ni 10.038285  8.087352  2.730152
Ni 10.046865  9.877601  0.934554
Ni 11.868793  9.878627  2.726824
Ni 13.691310  8.078866  2.723713
Ni 13.677866  9.882875  0.919947
Ni  8.251799 13.464628  2.703068
Ni 10.080490 11.695084  2.697863
Ni 10.050649 13.507463  0.897053
Ni 11.869907 13.507769  2.682093
Ni 13.659096 11.687454  2.709106
Ni 13.671705 13.495644  0.883792
Ni  8.227676  2.654818  2.730585
Ni 10.076022  0.850481  2.691582
Ni 10.034198  2.663570  0.905672
Ni 11.856020  2.667746  2.686515
Ni 13.679634  0.858921  2.676063
Ni 13.667562  2.667060  0.896674
Ni  8.193260  6.249018  6.337342
Ni 10.033983  4.464518  6.319563
Ni 10.046680  6.252916  4.514291
Ni 11.834456  6.287298  6.301633
Ni 13.653438  4.495929  6.309654
Ni 13.681109  6.279540  4.505257
Ni  8.177644  9.998559  6.215506
Ni 10.009467  8.087422  6.319044
Ni 10.058725  9.890923  4.525686
Ni 11.859778  9.866106  6.330320
Ni 13.681133  8.078900  6.318661
Ni 13.687652  9.885021  4.534104
Ni  8.245666 13.525244  6.360131
Ni 10.087587 11.704594  6.350614
Ni 10.116154 13.533997  4.520846
Ni 11.891280 13.488813  6.337061
Ni 13.701230 11.680802  6.336026
Ni 13.648994 13.508613  4.483497
Ni  8.250041  2.563173  6.332142
Ni 10.092728  0.835169  6.330990
Ni 10.058868  2.651528  4.521593
Ni 11.855654  2.692067  6.324641
Ni 13.605228  0.886034  6.347847
Ni 13.627843  2.674786  4.471630
Ni  8.179686  6.267969  9.886981
Ni 10.029086  4.481850  9.938886
Ni 10.009852  6.279021  8.121863
Ni 11.845034  6.286756  9.943524
Ni 13.624853  4.449440  9.945363
Ni 13.619745  6.274457  8.089368
Ni  8.199194  9.888563  9.951647
Ni 10.004485  8.078449  9.934776
Ni 10.027017  9.889945  8.120468
Ni 11.824501  9.868336  9.943032
Ni 13.641368  8.102941  9.945665
Ni 13.667310  9.842129  8.141408
Ni  8.257074 13.506037  9.965972
Ni 10.054646 11.678238  9.972353
Ni 10.081205 13.489054  8.152140
Ni 11.855184 13.488581  9.968101
Ni 13.632092 11.659278 10.006697
Ni 13.661850 13.523213  8.166733
Ni  8.264064  2.650402  9.944829
Ni 10.087326  0.843754  9.988327
Ni 10.069111  2.659263  8.133747
Ni 11.831116  2.670713  9.955764
Ni 13.627985  0.871471  9.929243
Ni 13.633049  2.678214  8.153266
Ni  8.234266  6.284069 13.611196
Ni 10.027639  4.475799 13.583139
Ni 10.016564  6.291005 11.755024
Ni 11.821244  6.276214 13.591931
Ni 13.644664  4.483981 13.573438
Ni 13.618567  6.283464 11.796262
Ni  8.224948  9.867029 13.596645
Ni 10.031047  8.082423 13.591112
Ni 10.020415  9.866248 11.765050
Ni 11.856846  9.871144 13.573812
Ni 13.654143  8.066312 13.574188
Ni 13.650375  9.854325 11.745284
Ni  8.237423 13.516279 13.556529
Ni 10.056728 11.679276 13.558219
Ni 10.053773 13.496664 11.770127
Ni 11.845436 13.500297 13.569484
Ni 13.671393 11.700070 13.540887
Ni 13.639738 13.472258 11.756108
Ni  8.223220  2.664725 13.571084
Ni 10.043292  0.854948 13.563942
Ni 10.043404  2.666565 11.768391
Ni 11.842997  2.675768 13.576429
Ni 13.636408  0.846206 13.582147
Ni 13.601300  2.707810 11.761816
Ni  1.032107  6.285743  2.708257
Ni  2.796359  4.444059  2.716395
Ni  0.954096  4.492157  0.893332
Ni  4.558597  6.259065  2.741921
Ni  6.375698  4.437677  2.740209
Ni  4.596067  8.041464  0.930298
Ni  4.638551  4.419669  0.922493
Ni  0.989686  8.054684  0.916515
Ni  0.961829  9.904326  2.711974
Ni  4.610084  9.903055  2.665722
Ni  6.375124  8.043011  2.736094
Ni  6.434645  9.917599  0.963116
Ni  2.758775  9.907224  0.892454
Ni  0.939187 13.477613  2.708244
Ni  4.543052 11.751709  0.909412
Ni  2.752261 13.529795  0.856294
Ni  4.560583 13.598847  2.693081
Ni  4.611218 11.745032  4.478211
Ni  6.435427 13.539328  0.911743
Ni  0.970820  2.677355  2.688727
Ni  4.566770  0.906216  0.904768
Ni  0.987765  0.853431  0.843933
Ni  4.577041  2.613866  2.709762
Ni  6.415387  0.830227  2.689303
Ni  6.421951  2.642513  0.956152
Ni  2.782924  0.897325 13.474423
Ni  0.969233  6.246713  6.300171
Ni  2.804669  4.379177  6.337518
Ni  0.963999  4.454357  4.488346
Ni  6.428144  4.340763  6.309250
Ni  6.371021  6.243359  4.536623
Ni  4.605880  4.405135  4.530092
Ni  1.045300  9.922382  6.364369
Ni  2.802709  8.040311  6.281144
Ni  2.807957  9.899548  4.516414
Ni  1.018865  8.083243  4.520141
Ni  4.585550  9.855494  6.325631
Ni  6.440294  8.123536  6.305537
Ni  4.532765  8.014406  4.526076
Ni  0.925979  0.887744  4.488639
Ni  0.978257 11.695414  4.539071
Ni  4.550658 13.586825  6.353392
Ni  6.410673 13.550855  4.532032
Ni  2.749408 13.540658  4.527066
Ni  2.741898  0.922804  6.385408
Ni  2.782747  2.647517  4.480498
Ni  4.612954  2.634318  6.324017
Ni  6.405816  2.556476  4.525382
Ni  0.964763  4.467737  8.122405
Ni  6.456594  4.405668  9.934122
Ni  4.653910  4.443903  8.111442
Ni  1.017424  9.803641  9.967014
Ni  0.974100  8.017237  8.124235
Ni  2.885027  7.880973 10.030778
Ni  6.378628  8.086537  9.936529
Ni  6.439859  9.925009  8.088305
Ni  4.650181  8.059296  8.095348
Ni  0.956634 13.519471  9.970118
Ni  2.779258 11.619492  9.908672
Ni  2.694103 13.479193  8.097977
Ni  4.592545 13.487234  9.920363
Ni  6.426843 11.734697  9.960066
Ni  6.407998 13.507391  8.182312
Ni  4.512554 11.695241  8.160787
Ni  0.949954  2.713089  9.961482
Ni  2.756435  0.831491 10.014031
Ni  0.972750  0.907545  8.203246
Ni  4.649321  2.667656  9.957482
Ni  6.405651  0.842463  9.949842
Ni  6.422775  2.619914  8.154499
Ni  4.560549  0.833287  8.200016
Ni  0.939310  6.274668 13.589398
Ni  2.819723  4.356431 13.550462
Ni  2.797562  4.660512  9.923096
Ni  0.939833  4.482780 11.761397
Ni  4.650896  6.215919 13.579876
Ni  6.443532  4.491676 13.573336
Ni  6.454071  6.257943 11.770411
Ni  4.665147  4.461642 11.746400
Ni  0.974660 11.713856  0.886850
Ni  2.827226  8.085154 13.560689
Ni  2.893140  9.857630 11.717572
Ni  1.000735  8.047045 11.759978
Ni  6.392060  6.253165  0.941508
Ni  6.392545  9.890218 11.816088
Ni  6.410531  8.066968 13.633034
Ni  0.989626 13.507963 13.513560
Ni  2.773257 11.729735 13.543384
Ni  0.986486 11.645393 11.715867
Ni  6.433041 11.709340 13.591192
Ni  6.415513 13.506942 11.733638
Ni  4.637233 11.746088 11.774501
Ni  0.942714  2.671149 13.525115
Ni  4.628389  0.835182 11.727711
Ni  6.443962  0.847945 13.551837
Ni  6.466531  2.649572 11.723443
%ENDBLOCK POSITIONS_ABS

