#######################################################
#CASTEP cell file: /home/u2093113/Documents/kART/CASTEP/castep.cell
#Created using the Atomic Simulation Environment (ASE)#
#######################################################

%BLOCK LATTICE_CART
14.464828  0.000000  0.000000
 0.000000 14.464828  0.000000
 0.000000  0.000000 14.464828
%ENDBLOCK LATTICE_CART

%BLOCK POSITIONS_ABS
Al  8.216599  4.464948  0.929537
Al 11.843178  4.478701  0.912368
Al  8.214516  8.088891  0.972525
Al 11.855729  8.084153  0.924980
Al  8.305684 11.689362  0.840845
Al 11.877925 11.683895  0.888716
Al  8.244270  0.864093  0.906452
Al 11.857005  0.861351  0.885376
Al  8.217004  4.443246  4.538050
Al 11.861562  4.477376  4.494315
Al  8.276624  8.001364  4.521432
Al 11.872861  8.084169  4.512031
Al  8.408410 11.813328  4.527560
Al 11.880609 11.685719  4.514199
Al  8.311845  0.820364  4.446003
Al 11.887142  0.867541  4.489273
Al  8.299840  4.371742  8.101450
Al 11.846660  4.488282  8.124773
Al  8.270811  8.172213  8.090457
Al 11.845341  8.079582  8.119583
Al  8.303040 11.706073  8.196148
Al 11.904919 11.683063  8.149821
Al  8.353410  0.838995  8.236578
Al 11.854119  0.850052  8.149915
Al  8.242599  4.484135 11.742320
Al 11.819234  4.497778 11.767587
Al  8.195414  8.069033 11.746466
Al 11.837890  8.076026 11.764205
Al  8.224198 11.689611 11.770676
Al 11.842139 11.668018 11.778961
Al  8.237216  0.852759 11.748416
Al 11.870710  0.852715 11.781469
Al  4.769652  2.660634 13.544910
Al  0.824607  0.875920 11.751305
Al  2.795290  2.760167 11.632455
Al  4.671781 13.545142 13.630658
Al  2.781775 13.419088 11.676280
Al  4.612750  9.981309 13.688905
Al  1.001261  9.875046 13.545394
Al  2.823125  2.659597  8.257951
Al  0.858131 11.687071  8.275325
Al  4.736274  9.957033  9.937520
Al  2.762258  9.708416  8.160839
Al  4.708101  6.165779  9.923693
Al  4.702479  8.042209 11.864527
Al  2.876375  6.254510  7.880152
Al  0.840314  6.272516  9.917942
Al  4.549633  0.845952  4.514350
Al  6.378241  0.834350  6.439968
Al  2.643807  0.782908  2.676255
Al  0.892999  2.657002  6.261533
Al  6.254493 11.816009  6.381152
Al  0.887810 13.647264  6.274690
Al  2.881127 11.716205  6.228947
Al  6.246301  9.812459  4.492064
Al  6.289570  6.240168  7.842553
Al  2.844273  6.156365  4.645217
Al  2.711334  2.732386  0.888688
Al  6.292730 11.825991  2.649477
Al  2.766600 11.725548  2.696439
Al  2.815010  6.181681  0.834315
Al  2.733044  6.172833 11.933009
Al  2.792912  8.183212  2.714823
Ni  8.182098  6.247287  2.745029
Ni 10.034976  4.464400  2.719646
Ni 10.024626  6.284176  0.944064
Ni 11.866834  6.282826  2.715679
Ni 13.673999  4.487764  2.696164
Ni 13.658120  6.293055  0.925614
Ni  8.176368  9.973313  2.828509
Ni 10.032606  8.088690  2.731129
Ni 10.041550  9.874203  0.930117
Ni 11.870274  9.879234  2.720023
Ni 13.696994  8.081091  2.720478
Ni 13.681094  9.880427  0.915967
Ni  8.252864 13.466296  2.696738
Ni 10.079561 11.696115  2.689522
Ni 10.045955 13.507294  0.890051
Ni 11.868858 13.508263  2.671120
Ni 13.660309 11.687504  2.698976
Ni 13.671164 13.496770  0.877178
Ni  8.225372  2.659172  2.731941
Ni 10.074798  0.853273  2.681744
Ni 10.027358  2.670702  0.900893
Ni 11.856167  2.673065  2.678754
Ni 13.676288  0.860735  2.665522
Ni 13.667025  2.672715  0.893885
Ni  8.223676  6.252207  6.349811
Ni 10.053254  4.462862  6.306609
Ni 10.052309  6.256693  4.509533
Ni 11.845246  6.289979  6.290814
Ni 13.657305  4.499274  6.298688
Ni 13.687486  6.282998  4.499293
Ni  8.185099 10.002164  6.206094
Ni 10.030977  8.093446  6.307305
Ni 10.063072  9.894837  4.520099
Ni 11.869651  9.872058  6.323468
Ni 13.688104  8.081655  6.313865
Ni 13.690317  9.887894  4.526457
Ni  8.251922 13.526308  6.357381
Ni 10.094087 11.708761  6.345683
Ni 10.120144 13.535453  4.513411
Ni 11.892745 13.491265  6.330861
Ni 13.697874 11.687709  6.331312
Ni 13.645003 13.510274  4.471397
Ni  8.254663  2.560013  6.321123
Ni 10.098718  0.836822  6.325641
Ni 10.061066  2.652658  4.513213
Ni 11.861544  2.691861  6.312780
Ni 13.601316  0.885013  6.338181
Ni 13.630903  2.678501  4.460837
Ni  8.191922  6.271065  9.838143
Ni 10.040366  4.484116  9.937115
Ni 10.040603  6.282224  8.113587
Ni 11.851961  6.288328  9.941981
Ni 13.626715  4.453166  9.943006
Ni 13.624707  6.276485  8.082241
Ni  8.194647  9.887907  9.945875
Ni 10.015668  8.082090  9.930004
Ni 10.048745  9.905065  8.116930
Ni 11.832601  9.869774  9.943310
Ni 13.647051  8.101742  9.943212
Ni 13.671810  9.843938  8.139042
Ni  8.254155 13.507737  9.961197
Ni 10.054846 11.677657  9.971863
Ni 10.084250 13.490995  8.151563
Ni 11.855043 13.491439  9.971311
Ni 13.633166 11.664057 10.011032
Ni 13.658264 13.526154  8.166291
Ni  8.259452  2.654525  9.941664
Ni 10.087111  0.847419  9.987229
Ni 10.087335  2.649625  8.129370
Ni 11.836106  2.673629  9.957377
Ni 13.623299  0.870848  9.933586
Ni 13.630326  2.678964  8.148606
Ni  8.229834  6.287283 13.603325
Ni 10.021687  4.483934 13.576285
Ni 10.016172  6.293993 11.746890
Ni 11.824095  6.279237 13.594959
Ni 13.646226  4.487766 13.576845
Ni 13.624969  6.284079 11.792857
Ni  8.221243  9.860740 13.588881
Ni 10.026391  8.080549 13.585262
Ni 10.019094  9.862842 11.760378
Ni 11.855213  9.868190 13.572924
Ni 13.657971  8.065693 13.576369
Ni 13.650728  9.853733 11.747731
Ni  8.232683 13.516385 13.553599
Ni 10.052775 11.676989 13.551989
Ni 10.048733 13.497574 11.767391
Ni 11.843039 13.501087 13.567506
Ni 13.671141 11.698384 13.540372
Ni 13.636917 13.474091 11.760895
Ni  8.217587  2.675024 13.561857
Ni 10.036824  0.859032 13.558735
Ni 10.040851  2.674067 11.764157
Ni 11.839605  2.682340 13.576839
Ni 13.635915  0.850317 13.582966
Ni 13.599876  2.711539 11.765626
Ni  1.052884  6.288899  2.721509
Ni  2.805937  4.451834  2.728931
Ni  0.960777  4.495972  0.900255
Ni  4.565589  6.263363  2.769683
Ni  6.373163  4.444966  2.754447
Ni  4.599429  8.040622  0.934861
Ni  4.642039  4.427995  0.927244
Ni  0.998878  8.055520  0.920938
Ni  0.967719  9.905706  2.709197
Ni  4.614834  9.905484  2.669765
Ni  6.373394  8.039112  2.755161
Ni  6.437888  9.913139  0.966090
Ni  2.765886  9.903230  0.897110
Ni  0.936864 13.478540  2.698037
Ni  4.548858 11.750020  0.907398
Ni  2.755759 13.529906  0.851480
Ni  4.563715 13.599526  2.688281
Ni  4.611119 11.752095  4.477653
Ni  6.437096 13.539030  0.907492
Ni  0.971795  2.679934  2.683974
Ni  4.569764  0.909322  0.905874
Ni  0.988942  0.857355  0.840468
Ni  4.581893  2.616527  2.710214
Ni  6.417580  0.832142  2.686440
Ni  6.422315  2.650415  0.956876
Ni  2.786559  0.903218 13.476494
Ni  0.981793  6.249161  6.292651
Ni  2.784258  4.326386  6.333368
Ni  0.975950  4.461992  4.483477
Ni  6.417360  4.344149  6.316774
Ni  6.335782  6.242605  4.600505
Ni  4.606068  4.385852  4.542648
Ni  1.036401  9.938477  6.359055
Ni  2.782337  8.092681  6.277227
Ni  2.807307  9.911735  4.510658
Ni  1.021685  8.085860  4.517056
Ni  4.585510  9.867883  6.327262
Ni  6.426602  8.128291  6.312606
Ni  4.535547  8.029623  4.549033
Ni  0.921060  0.883831  4.477714
Ni  0.976874 11.702888  4.530578
Ni  4.547483 13.589177  6.348890
Ni  6.414640 13.553263  4.527117
Ni  2.746567 13.542367  4.518865
Ni  2.733744  0.919155  6.377983
Ni  2.781236  2.634277  4.471159
Ni  4.612198  2.625258  6.324743
Ni  6.405288  2.554050  4.529368
Ni  0.961423  4.469616  8.113371
Ni  6.444529  4.443812  9.889625
Ni  4.622565  4.438031  8.104736
Ni  1.012020  9.810138  9.968736
Ni  0.984444  8.018163  8.117724
Ni  2.868269  7.889175 10.019947
Ni  6.363569  8.045780  9.889946
Ni  6.434948  9.936446  8.080320
Ni  4.609973  8.070709  8.082017
Ni  0.953596 13.523523  9.974293
Ni  2.776108 11.625406  9.911721
Ni  2.689991 13.483086  8.099117
Ni  4.590049 13.492228  9.922629
Ni  6.421604 11.736094  9.956475
Ni  6.405443 13.510096  8.181408
Ni  4.507752 11.704506  8.161329
Ni  0.939671  2.710961  9.960670
Ni  2.752369  0.832188 10.016969
Ni  0.964929  0.903738  8.201448
Ni  4.643891  2.673924  9.947988
Ni  6.401167  0.845423  9.946066
Ni  6.419080  2.613211  8.148595
Ni  4.554384  0.830892  8.197832
Ni  0.938805  6.274695 13.594342
Ni  2.819082  4.361295 13.554196
Ni  2.769993  4.643241  9.912545
Ni  0.936695  4.484318 11.760439
Ni  4.651325  6.219109 13.576184
Ni  6.441588  4.496944 13.568965
Ni  6.450928  6.260318 11.757699
Ni  4.657271  4.457098 11.747523
Ni  0.978221 11.711425  0.883042
Ni  2.826729  8.085067 13.562207
Ni  2.892705  9.855685 11.711875
Ni  0.998869  8.046158 11.758136
Ni  6.390011  6.256529  0.944851
Ni  6.389953  9.877865 11.797450
Ni  6.409051  8.066645 13.627337
Ni  0.991182 13.508595 13.514353
Ni  2.778331 11.728227 13.542521
Ni  0.986654 11.649385 11.719944
Ni  6.432881 11.702310 13.584261
Ni  6.410976 13.507663 11.731820
Ni  4.635520 11.742524 11.771816
Ni  0.944184  2.676762 13.528864
Ni  4.624942  0.842533 11.724552
Ni  6.440891  0.855953 13.546368
Ni  6.460811  2.665595 11.707558
%ENDBLOCK POSITIONS_ABS

