%block lattice_abc 
  14.46482773 14.46482773 14.46482773 #lattice params 
 90.0  90.0  90.0 
     %endblock lattice_abc 
     fix_all_cell : true 
     %BLOCK POSITIONS_ABS 
Al  8.230205  4.448457  0.927461
 Al 11.848960  4.462156  0.915606
 Al  8.226801  8.095993  0.967512
 Al 11.858350  8.086336  0.927611
 Al  8.311605 11.698152  0.851024
 Al 11.883344 11.688018  0.900286
 Al  8.250785  0.853709  0.918997
 Al 11.862419  0.853110  0.899448
 Al  8.225066  4.430320  4.517362
 Al 11.848994  4.473467  4.518062
 Al  8.288520  8.001772  4.497627
 Al 11.855347  8.074503  4.527490
 Al  8.399092 11.803760  4.538468
 Al 11.874812 11.681970  4.531189
 Al  8.305273  0.823834  4.457058
 Al 11.884679  0.863110  4.513785
 Al  8.180914  4.472074  8.129679
 Al 11.826855  4.488404  8.137689
 Al  8.166164  8.058521  8.129799
 Al 11.820450  8.070253  8.128860
 Al  8.300775 11.706520  8.202511
 Al 11.891216 11.670958  8.149724
 Al  8.350323  0.831627  8.243300
 Al 11.837595  0.852678  8.152307
 Al  8.259001  4.460147 11.781359
 Al 11.807346  4.486089 11.761834
 Al  8.208976  8.081162 11.788873
 Al 11.826687  8.080394 11.762462
 Al  8.234026 11.693316 11.779868
 Al 11.841127 11.668215 11.777893
 Al  8.252438  0.844931 11.755130
 Al 11.879200  0.842949 11.775247
 Al  4.764865  2.654028 13.542691
 Al  0.824497  0.870730 11.741798
 Al  2.804421  2.758638 11.633768
 Al  4.663812 13.541262 13.633665
 Al  2.781159 13.410940 11.669502
 Al  4.608672  9.988316 13.690159
 Al  0.988242  9.875542 13.549223
 Al  2.857385  2.700148  8.265757
 Al  0.868572 11.665298  8.273358
 Al  4.729393  9.970197  9.962933
 Al  2.792293  9.652874  8.154805
 Al  4.927570  6.195255  9.779084
 Al  4.712939  8.026966 11.866204
 Al  2.769245  6.274039  8.038108
 Al  0.820622  6.267915  9.957665
 Al  4.545974  0.852574  4.525474
 Al  6.374282  0.843509  6.445035
 Al  2.640345  0.784410  2.691559
 Al  0.915268  2.673728  6.278785
 Al  6.249841 11.797228  6.381256
 Al  0.898922 13.641245  6.286596
 Al  2.888396 11.700230  6.237797
 Al  6.236962  9.790524  4.485342
 Al  4.887072  6.225779  6.370327
 Al  2.727040  6.151672  4.527346
 Al  2.697558  2.716180  0.877315
 Al  6.288058 11.821409  2.654076
 Al  2.762695 11.714088  2.709827
 Al  2.800519  6.177317  0.822042
 Al  2.760705  6.169197 11.927873
 Al  2.767004  8.196516  2.689076
 Ni  8.215203  6.242752  2.703025
 Ni 10.046877  4.455235  2.723032
 Ni 10.046835  6.275690  0.938988
 Ni 11.861271  6.275253  2.724508
 Ni 13.661974  4.478014  2.703032
 Ni 13.640291  6.289334  0.913789
 Ni  8.175824  9.976695  2.826952
 Ni 10.043964  8.086014  2.729175
 Ni 10.052180  9.880999  0.938990
 Ni 11.867311  9.878020  2.733626
 Ni 13.685625  8.076641  2.726948
 Ni 13.674639  9.885322  0.923927
 Ni  8.250735 13.462961  2.709398
 Ni 10.081418 11.694052  2.706204
 Ni 10.055343 13.507633  0.904055
 Ni 11.870956 13.507275  2.693065
 Ni 13.657883 11.687405  2.719236
 Ni 13.672246 13.494518  0.890406
 Ni  8.229980  2.650465  2.729230
 Ni 10.077245  0.847689  2.701421
 Ni 10.041039  2.656438  0.910451
 Ni 11.855874  2.662428  2.694276
 Ni 13.682981  0.857106  2.686605
 Ni 13.668100  2.661404  0.899464
 Ni  8.162844  6.245829  6.324872
 Ni 10.014712  4.466174  6.332518
 Ni 10.041052  6.249140  4.519049
 Ni 11.823667  6.284618  6.312452
 Ni 13.649571  4.492585  6.320620
 Ni 13.674732  6.276081  4.511222
 Ni  8.170190  9.994953  6.224919
 Ni  9.987957  8.081398  6.330782
 Ni 10.054379  9.887008  4.531272
 Ni 11.849906  9.860154  6.337172
 Ni 13.674162  8.076146  6.323456
 Ni 13.684987  9.882148  4.541751
 Ni  8.239411 13.524180  6.362880
 Ni 10.081088 11.700428  6.355545
 Ni 10.112165 13.532540  4.528281
 Ni 11.889815 13.486361  6.343260
 Ni 13.704585 11.673896  6.340740
 Ni 13.652984 13.506951  4.495597
 Ni  8.245419  2.566333  6.343160
 Ni 10.086737  0.833517  6.336339
 Ni 10.056670  2.650398  4.529974
 Ni 11.849764  2.692273  6.336501
 Ni 13.609140  0.887055  6.357513
 Ni 13.624783  2.671072  4.482423
 Ni  8.167451  6.264873  9.935819
 Ni 10.017805  4.479583  9.940656
 Ni  9.979100  6.275817  8.130140
 Ni 11.838106  6.285184  9.945067
 Ni 13.622990  4.445715  9.947720
 Ni 13.614783  6.272430  8.096495
 Ni  8.203740  9.889219  9.957419
 Ni  9.993303  8.074808  9.939549
 Ni 10.005290  9.874824  8.124005
 Ni 11.816401  9.866899  9.942754
 Ni 13.635685  8.104141  9.948117
 Ni 13.662809  9.840321  8.143775
 Ni  8.259993 13.504336  9.970746
 Ni 10.054447 11.678819  9.972842
 Ni 10.078160 13.487114  8.152718
 Ni 11.855325 13.485724  9.964891
 Ni 13.631018 11.654499 10.002361
 Ni 13.665436 13.520273  8.167175
 Ni  8.268675  2.646279  9.947994
 Ni 10.087542  0.840090  9.989425
 Ni 10.050888  2.668901  8.138124
 Ni 11.826126  2.667796  9.954152
 Ni 13.632672  0.872094  9.924901
 Ni 13.635772  2.677465  8.157926
 Ni  8.238698  6.280855 13.619067
 Ni 10.033591  4.467664 13.589993
 Ni 10.016956  6.288016 11.763158
 Ni 11.818394  6.273190 13.588903
 Ni 13.643101  4.480197 13.570030
 Ni 13.612165  6.282849 11.799667
 Ni  8.228653  9.873318 13.604408
 Ni 10.035704  8.084298 13.596962
 Ni 10.021736  9.869654 11.769721
 Ni 11.858480  9.874098 13.574699
 Ni 13.650316  8.066931 13.572007
 Ni 13.650022  9.854917 11.742837
 Ni  8.242163 13.516174 13.559459
 Ni 10.060682 11.681564 13.564449
 Ni 10.058813 13.495754 11.772862
 Ni 11.847834 13.499507 13.571463
 Ni 13.671644 11.701756 13.541403
 Ni 13.642560 13.470425 11.751320
 Ni  8.228853  2.654427 13.580310
 Ni 10.049761  0.850865 13.569149
 Ni 10.045957  2.659063 11.772626
 Ni 11.846390  2.669195 13.576020
 Ni 13.636901  0.842095 13.581328
 Ni 13.602723  2.704081 11.758007
 Ni  1.011330  6.282586  2.695006
 Ni  2.786781  4.436284  2.703860
 Ni  0.947415  4.488342  0.886410
 Ni  4.551605  6.254768  2.714159
 Ni  6.378234  4.430388  2.725972
 Ni  4.592704  8.042307  0.925735
 Ni  4.635062  4.411344  0.917742
 Ni  0.980494  8.053849  0.912093
 Ni  0.955938  9.902945  2.714750
 Ni  4.605334  9.900625  2.661679
 Ni  6.376854  8.046910  2.717026
 Ni  6.431402  9.922059  0.960142
 Ni  2.751664  9.911219  0.887798
 Ni  0.941510 13.476686  2.718452
 Ni  4.537245 11.753398  0.911426
 Ni  2.748763 13.529683  0.861109
 Ni  4.557451 13.598168  2.697881
 Ni  4.611318 11.737969  4.478770
 Ni  6.433757 13.539626  0.915993
 Ni  0.969846  2.674775  2.693481
 Ni  4.563776  0.903109  0.903662
 Ni  0.986588  0.849506  0.847399
 Ni  4.572189  2.611205  2.709311
 Ni  6.413193  0.828312  2.692167
 Ni  6.421587  2.634610  0.955429
 Ni  2.779289  0.891432 13.472351
 Ni  0.956672  6.244265  6.307691
 Ni  2.825080  4.431969  6.341668
 Ni  0.952047  4.446722  4.493215
 Ni  6.438928  4.337378  6.301725
 Ni  6.406260  6.244113  4.472741
 Ni  4.605693  4.424419  4.517536
 Ni  1.054198  9.906287  6.369682
 Ni  2.823082  7.987940  6.285061
 Ni  2.808607  9.887360  4.522169
 Ni  1.016044  8.080625  4.523226
 Ni  4.585589  9.843106  6.323999
 Ni  6.453985  8.118780  6.298468
 Ni  4.529984  7.999190  4.503119
 Ni  0.930899  0.891657  4.499563
 Ni  0.979640 11.687939  4.547565
 Ni  4.553832 13.584473  6.357895
 Ni  6.406705 13.548447  4.536947
 Ni  2.752250 13.538948  4.535268
 Ni  2.750052  0.926454  6.392833
 Ni  2.784259  2.660757  4.489838
 Ni  4.613711  2.643378  6.323292
 Ni  6.406344  2.558903  4.521397
 Ni  0.968103  4.465858  8.131440
 Ni  6.468659  4.367524  9.978618
 Ni  4.685254  4.449775  8.118148
 Ni  1.022828  9.797144  9.965293
 Ni  0.963756  8.016311  8.130745
 Ni  2.901785  7.872772 10.041609
 Ni  6.393687  8.127294  9.983112
 Ni  6.444770  9.913573  8.096291
 Ni  4.690390  8.047883  8.108679
 Ni  0.959672 13.515420  9.965944
 Ni  2.782409 11.613578  9.905623
 Ni  2.698216 13.475301  8.096837
 Ni  4.595040 13.482239  9.918097
 Ni  6.432082 11.733299  9.963658
 Ni  6.410554 13.504685  8.183215
 Ni  4.517355 11.685976  8.160244
 Ni  0.960236  2.715217  9.962295
 Ni  2.760501  0.830795 10.011094
 Ni  0.980572  0.911352  8.205043
 Ni  4.654751  2.661387  9.966977
 Ni  6.410134  0.839502  9.953618
 Ni  6.426471  2.626617  8.160404
 Ni  4.566714  0.835681  8.202201
 Ni  0.939815  6.274641 13.584455
 Ni  2.820364  4.351567 13.546727
 Ni  2.825131  4.677782  9.933646
 Ni  0.942972  4.481243 11.762356
 Ni  4.650467  6.212730 13.583568
 Ni  6.445477  4.486408 13.577707
 Ni  6.457215  6.255568 11.783123
 Ni  4.673024  4.466186 11.745277
 Ni  0.971098 11.716286  0.890659
 Ni  2.827723  8.085240 13.559171
 Ni  2.893575  9.859575 11.723270
 Ni  1.002601  8.047931 11.761821
 Ni  6.394109  6.249801  0.938166
 Ni  6.395136  9.902571 11.834726
 Ni  6.412011  8.067291 13.638732
 Ni  0.988069 13.507331 13.512768
 Ni  2.768183 11.731243 13.544247
 Ni  0.986317 11.641402 11.711790
 Ni  6.433200 11.716370 13.598124
 Ni  6.420051 13.506220 11.735457
 Ni  4.638947 11.749653 11.777186
 Ni  0.941243  2.665536 13.521365
 Ni  4.631837  0.827831 11.730870
 Ni  6.447034  0.839937 13.557306
 Ni  6.472252  2.633548 11.739328
 %ENDBLOCK POSITIONS_ABS
 
%block positions_abs_product 
     ang 
Al  8.216599  4.464948  0.929537
 Al 11.843178  4.478701  0.912368
 Al  8.214516  8.088891  0.972525
 Al 11.855729  8.084153  0.924980
 Al  8.305684 11.689362  0.840845
 Al 11.877925 11.683895  0.888716
 Al  8.244270  0.864093  0.906452
 Al 11.857005  0.861351  0.885376
 Al  8.217004  4.443246  4.538050
 Al 11.861562  4.477376  4.494315
 Al  8.276624  8.001364  4.521432
 Al 11.872861  8.084169  4.512031
 Al  8.408410 11.813328  4.527560
 Al 11.880609 11.685719  4.514199
 Al  8.311845  0.820364  4.446003
 Al 11.887142  0.867541  4.489273
 Al  8.299840  4.371742  8.101450
 Al 11.846660  4.488282  8.124773
 Al  8.270811  8.172213  8.090457
 Al 11.845341  8.079582  8.119583
 Al  8.303040 11.706073  8.196148
 Al 11.904919 11.683063  8.149821
 Al  8.353410  0.838995  8.236578
 Al 11.854119  0.850052  8.149915
 Al  8.242599  4.484135 11.742320
 Al 11.819234  4.497778 11.767587
 Al  8.195414  8.069033 11.746466
 Al 11.837890  8.076026 11.764205
 Al  8.224198 11.689611 11.770676
 Al 11.842139 11.668018 11.778961
 Al  8.237216  0.852759 11.748416
 Al 11.870710  0.852715 11.781469
 Al  4.769652  2.660634 13.544910
 Al  0.824607  0.875920 11.751305
 Al  2.795290  2.760167 11.632455
 Al  4.671781 13.545142 13.630658
 Al  2.781775 13.419088 11.676280
 Al  4.612750  9.981309 13.688905
 Al  1.001261  9.875046 13.545394
 Al  2.823125  2.659597  8.257951
 Al  0.858131 11.687071  8.275325
 Al  4.736274  9.957033  9.937520
 Al  2.762258  9.708416  8.160839
 Al  4.708101  6.165779  9.923693
 Al  4.702479  8.042209 11.864527
 Al  2.876375  6.254510  7.880152
 Al  0.840314  6.272516  9.917942
 Al  4.549633  0.845952  4.514350
 Al  6.378241  0.834350  6.439968
 Al  2.643807  0.782908  2.676255
 Al  0.892999  2.657002  6.261533
 Al  6.254493 11.816009  6.381152
 Al  0.887810 13.647264  6.274690
 Al  2.881127 11.716205  6.228947
 Al  6.246301  9.812459  4.492064
 Al  6.289570  6.240168  7.842553
 Al  2.844273  6.156365  4.645217
 Al  2.711334  2.732386  0.888688
 Al  6.292730 11.825991  2.649477
 Al  2.766600 11.725548  2.696439
 Al  2.815010  6.181681  0.834315
 Al  2.733044  6.172833 11.933009
 Al  2.792912  8.183212  2.714823
 Ni  8.182098  6.247287  2.745029
 Ni 10.034976  4.464400  2.719646
 Ni 10.024626  6.284176  0.944064
 Ni 11.866834  6.282826  2.715679
 Ni 13.673999  4.487764  2.696164
 Ni 13.658120  6.293055  0.925614
 Ni  8.176368  9.973313  2.828509
 Ni 10.032606  8.088690  2.731129
 Ni 10.041550  9.874203  0.930117
 Ni 11.870274  9.879234  2.720023
 Ni 13.696994  8.081091  2.720478
 Ni 13.681094  9.880427  0.915967
 Ni  8.252864 13.466296  2.696738
 Ni 10.079561 11.696115  2.689522
 Ni 10.045955 13.507294  0.890051
 Ni 11.868858 13.508263  2.671120
 Ni 13.660309 11.687504  2.698976
 Ni 13.671164 13.496770  0.877178
 Ni  8.225372  2.659172  2.731941
 Ni 10.074798  0.853273  2.681744
 Ni 10.027358  2.670702  0.900893
 Ni 11.856167  2.673065  2.678754
 Ni 13.676288  0.860735  2.665522
 Ni 13.667025  2.672715  0.893885
 Ni  8.223676  6.252207  6.349811
 Ni 10.053254  4.462862  6.306609
 Ni 10.052309  6.256693  4.509533
 Ni 11.845246  6.289979  6.290814
 Ni 13.657305  4.499274  6.298688
 Ni 13.687486  6.282998  4.499293
 Ni  8.185099 10.002164  6.206094
 Ni 10.030977  8.093446  6.307305
 Ni 10.063072  9.894837  4.520099
 Ni 11.869651  9.872058  6.323468
 Ni 13.688104  8.081655  6.313865
 Ni 13.690317  9.887894  4.526457
 Ni  8.251922 13.526308  6.357381
 Ni 10.094087 11.708761  6.345683
 Ni 10.120144 13.535453  4.513411
 Ni 11.892745 13.491265  6.330861
 Ni 13.697874 11.687709  6.331312
 Ni 13.645003 13.510274  4.471397
 Ni  8.254663  2.560013  6.321123
 Ni 10.098718  0.836822  6.325641
 Ni 10.061066  2.652658  4.513213
 Ni 11.861544  2.691861  6.312780
 Ni 13.601316  0.885013  6.338181
 Ni 13.630903  2.678501  4.460837
 Ni  8.191922  6.271065  9.838143
 Ni 10.040366  4.484116  9.937115
 Ni 10.040603  6.282224  8.113587
 Ni 11.851961  6.288328  9.941981
 Ni 13.626715  4.453166  9.943006
 Ni 13.624707  6.276485  8.082241
 Ni  8.194647  9.887907  9.945875
 Ni 10.015668  8.082090  9.930004
 Ni 10.048745  9.905065  8.116930
 Ni 11.832601  9.869774  9.943310
 Ni 13.647051  8.101742  9.943212
 Ni 13.671810  9.843938  8.139042
 Ni  8.254155 13.507737  9.961197
 Ni 10.054846 11.677657  9.971863
 Ni 10.084250 13.490995  8.151563
 Ni 11.855043 13.491439  9.971311
 Ni 13.633166 11.664057 10.011032
 Ni 13.658264 13.526154  8.166291
 Ni  8.259452  2.654525  9.941664
 Ni 10.087111  0.847419  9.987229
 Ni 10.087335  2.649625  8.129370
 Ni 11.836106  2.673629  9.957377
 Ni 13.623299  0.870848  9.933586
 Ni 13.630326  2.678964  8.148606
 Ni  8.229834  6.287283 13.603325
 Ni 10.021687  4.483934 13.576285
 Ni 10.016172  6.293993 11.746890
 Ni 11.824095  6.279237 13.594959
 Ni 13.646226  4.487766 13.576845
 Ni 13.624969  6.284079 11.792857
 Ni  8.221243  9.860740 13.588881
 Ni 10.026391  8.080549 13.585262
 Ni 10.019094  9.862842 11.760378
 Ni 11.855213  9.868190 13.572924
 Ni 13.657971  8.065693 13.576369
 Ni 13.650728  9.853733 11.747731
 Ni  8.232683 13.516385 13.553599
 Ni 10.052775 11.676989 13.551989
 Ni 10.048733 13.497574 11.767391
 Ni 11.843039 13.501087 13.567506
 Ni 13.671141 11.698384 13.540372
 Ni 13.636917 13.474091 11.760895
 Ni  8.217587  2.675024 13.561857
 Ni 10.036824  0.859032 13.558735
 Ni 10.040851  2.674067 11.764157
 Ni 11.839605  2.682340 13.576839
 Ni 13.635915  0.850317 13.582966
 Ni 13.599876  2.711539 11.765626
 Ni  1.052884  6.288899  2.721509
 Ni  2.805937  4.451834  2.728931
 Ni  0.960777  4.495972  0.900255
 Ni  4.565589  6.263363  2.769683
 Ni  6.373163  4.444966  2.754447
 Ni  4.599429  8.040622  0.934861
 Ni  4.642039  4.427995  0.927244
 Ni  0.998878  8.055520  0.920938
 Ni  0.967719  9.905706  2.709197
 Ni  4.614834  9.905484  2.669765
 Ni  6.373394  8.039112  2.755161
 Ni  6.437888  9.913139  0.966090
 Ni  2.765886  9.903230  0.897110
 Ni  0.936864 13.478540  2.698037
 Ni  4.548858 11.750020  0.907398
 Ni  2.755759 13.529906  0.851480
 Ni  4.563715 13.599526  2.688281
 Ni  4.611119 11.752095  4.477653
 Ni  6.437096 13.539030  0.907492
 Ni  0.971795  2.679934  2.683974
 Ni  4.569764  0.909322  0.905874
 Ni  0.988942  0.857355  0.840468
 Ni  4.581893  2.616527  2.710214
 Ni  6.417580  0.832142  2.686440
 Ni  6.422315  2.650415  0.956876
 Ni  2.786559  0.903218 13.476494
 Ni  0.981793  6.249161  6.292651
 Ni  2.784258  4.326386  6.333368
 Ni  0.975950  4.461992  4.483477
 Ni  6.417360  4.344149  6.316774
 Ni  6.335782  6.242605  4.600505
 Ni  4.606068  4.385852  4.542648
 Ni  1.036401  9.938477  6.359055
 Ni  2.782337  8.092681  6.277227
 Ni  2.807307  9.911735  4.510658
 Ni  1.021685  8.085860  4.517056
 Ni  4.585510  9.867883  6.327262
 Ni  6.426602  8.128291  6.312606
 Ni  4.535547  8.029623  4.549033
 Ni  0.921060  0.883831  4.477714
 Ni  0.976874 11.702888  4.530578
 Ni  4.547483 13.589177  6.348890
 Ni  6.414640 13.553263  4.527117
 Ni  2.746567 13.542367  4.518865
 Ni  2.733744  0.919155  6.377983
 Ni  2.781236  2.634277  4.471159
 Ni  4.612198  2.625258  6.324743
 Ni  6.405288  2.554050  4.529368
 Ni  0.961423  4.469616  8.113371
 Ni  6.444529  4.443812  9.889625
 Ni  4.622565  4.438031  8.104736
 Ni  1.012020  9.810138  9.968736
 Ni  0.984444  8.018163  8.117724
 Ni  2.868269  7.889175 10.019947
 Ni  6.363569  8.045780  9.889946
 Ni  6.434948  9.936446  8.080320
 Ni  4.609973  8.070709  8.082017
 Ni  0.953596 13.523523  9.974293
 Ni  2.776108 11.625406  9.911721
 Ni  2.689991 13.483086  8.099117
 Ni  4.590049 13.492228  9.922629
 Ni  6.421604 11.736094  9.956475
 Ni  6.405443 13.510096  8.181408
 Ni  4.507752 11.704506  8.161329
 Ni  0.939671  2.710961  9.960670
 Ni  2.752369  0.832188 10.016969
 Ni  0.964929  0.903738  8.201448
 Ni  4.643891  2.673924  9.947988
 Ni  6.401167  0.845423  9.946066
 Ni  6.419080  2.613211  8.148595
 Ni  4.554384  0.830892  8.197832
 Ni  0.938805  6.274695 13.594342
 Ni  2.819082  4.361295 13.554196
 Ni  2.769993  4.643241  9.912545
 Ni  0.936695  4.484318 11.760439
 Ni  4.651325  6.219109 13.576184
 Ni  6.441588  4.496944 13.568965
 Ni  6.450928  6.260318 11.757699
 Ni  4.657271  4.457098 11.747523
 Ni  0.978221 11.711425  0.883042
 Ni  2.826729  8.085067 13.562207
 Ni  2.892705  9.855685 11.711875
 Ni  0.998869  8.046158 11.758136
 Ni  6.390011  6.256529  0.944851
 Ni  6.389953  9.877865 11.797450
 Ni  6.409051  8.066645 13.627337
 Ni  0.991182 13.508595 13.514353
 Ni  2.778331 11.728227 13.542521
 Ni  0.986654 11.649385 11.719944
 Ni  6.432881 11.702310 13.584261
 Ni  6.410976 13.507663 11.731820
 Ni  4.635520 11.742524 11.771816
 Ni  0.944184  2.676762 13.528864
 Ni  4.624942  0.842533 11.724552
 Ni  6.440891  0.855953 13.546368
 Ni  6.460811  2.665595 11.707558
%endblock positions_abs_product 
%block positions_abs_intermediate 
     ang 
Al  8.223402  4.456703  0.928499
 Al 11.846069  4.470428  0.913987
 Al  8.220659  8.092442  0.970019
 Al 11.857040  8.085244  0.926296
 Al  8.308645 11.693757  0.845935
 Al 11.880635 11.685957  0.894501
 Al  8.247527  0.858901  0.912725
 Al 11.859712  0.857230  0.892412
 Al  8.221035  4.436783  4.527706
 Al 11.855278  4.475421  4.506188
 Al  8.282572  8.001568  4.509530
 Al 11.864104  8.079336  4.519760
 Al  8.403751 11.808544  4.533014
 Al 11.877710 11.683845  4.522694
 Al  8.308559  0.822099  4.451530
 Al 11.885911  0.865326  4.501529
 Al  8.240377  4.421908  8.115565
 Al 11.836758  4.488343  8.131231
 Al  8.218488  8.115367  8.110128
 Al 11.832896  8.074918  8.124221
 Al  8.301907 11.706296  8.199330
 Al 11.898067 11.677011  8.149772
 Al  8.351867  0.835311  8.239939
 Al 11.845857  0.851365  8.151111
 Al  8.250800  4.472141 11.761839
 Al 11.813290  4.491934 11.764711
 Al  8.202195  8.075097 11.767669
 Al 11.832289  8.078210 11.763333
 Al  8.229112 11.691464 11.775272
 Al 11.841633 11.668116 11.778427
 Al  8.244827  0.848845 11.751773
 Al 11.874955  0.847832 11.778358
 Al  4.767259  2.657331 13.543801
 Al  0.824552  0.873325 11.746552
 Al  2.799855  2.759403 11.633112
 Al  4.667797 13.543202 13.632162
 Al  2.781467 13.415014 11.672891
 Al  4.610711  9.984812 13.689532
 Al  0.994752  9.875294 13.547309
 Al  2.840255  2.679873  8.261854
 Al  0.863352 11.676184  8.274342
 Al  4.732834  9.963615  9.950227
 Al  2.777275  9.680645  8.157822
 Al  4.817835  6.180517  9.851389
 Al  4.707709  8.034588 11.865366
 Al  2.822810  6.264275  7.959130
 Al  0.830468  6.270215  9.937803
 Al  4.547803  0.849263  4.519912
 Al  6.376261  0.838930  6.442502
 Al  2.642076  0.783659  2.683907
 Al  0.904134  2.665365  6.270159
 Al  6.252167 11.806618  6.381204
 Al  0.893366 13.644254  6.280643
 Al  2.884761 11.708217  6.233372
 Al  6.241631  9.801491  4.488703
 Al  5.588321  6.232973  7.106440
 Al  2.785657  6.154018  4.586281
 Al  2.704446  2.724283  0.883001
 Al  6.290394 11.823700  2.651777
 Al  2.764648 11.719818  2.703133
 Al  2.807764  6.179499  0.828179
 Al  2.746874  6.171015 11.930441
 Al  2.779958  8.189864  2.701950
 Ni  8.198651  6.245019  2.724027
 Ni 10.040926  4.459818  2.721339
 Ni 10.035731  6.279933  0.941526
 Ni 11.864052  6.279039  2.720094
 Ni 13.667987  4.482889  2.699598
 Ni 13.649205  6.291194  0.919702
 Ni  8.176096  9.975004  2.827731
 Ni 10.038285  8.087352  2.730152
 Ni 10.046865  9.877601  0.934554
 Ni 11.868793  9.878627  2.726824
 Ni 13.691310  8.078866  2.723713
 Ni 13.677866  9.882875  0.919947
 Ni  8.251799 13.464628  2.703068
 Ni 10.080490 11.695084  2.697863
 Ni 10.050649 13.507463  0.897053
 Ni 11.869907 13.507769  2.682093
 Ni 13.659096 11.687454  2.709106
 Ni 13.671705 13.495644  0.883792
 Ni  8.227676  2.654818  2.730585
 Ni 10.076022  0.850481  2.691582
 Ni 10.034198  2.663570  0.905672
 Ni 11.856020  2.667746  2.686515
 Ni 13.679634  0.858921  2.676063
 Ni 13.667562  2.667060  0.896674
 Ni  8.193260  6.249018  6.337342
 Ni 10.033983  4.464518  6.319563
 Ni 10.046680  6.252916  4.514291
 Ni 11.834456  6.287298  6.301633
 Ni 13.653438  4.495929  6.309654
 Ni 13.681109  6.279540  4.505257
 Ni  8.177644  9.998559  6.215506
 Ni 10.009467  8.087422  6.319044
 Ni 10.058725  9.890923  4.525686
 Ni 11.859778  9.866106  6.330320
 Ni 13.681133  8.078900  6.318661
 Ni 13.687652  9.885021  4.534104
 Ni  8.245666 13.525244  6.360131
 Ni 10.087587 11.704594  6.350614
 Ni 10.116154 13.533997  4.520846
 Ni 11.891280 13.488813  6.337061
 Ni 13.701230 11.680802  6.336026
 Ni 13.648994 13.508613  4.483497
 Ni  8.250041  2.563173  6.332142
 Ni 10.092728  0.835169  6.330990
 Ni 10.058868  2.651528  4.521593
 Ni 11.855654  2.692067  6.324641
 Ni 13.605228  0.886034  6.347847
 Ni 13.627843  2.674786  4.471630
 Ni  8.179686  6.267969  9.886981
 Ni 10.029086  4.481850  9.938886
 Ni 10.009852  6.279021  8.121863
 Ni 11.845034  6.286756  9.943524
 Ni 13.624853  4.449440  9.945363
 Ni 13.619745  6.274457  8.089368
 Ni  8.199194  9.888563  9.951647
 Ni 10.004485  8.078449  9.934776
 Ni 10.027017  9.889945  8.120468
 Ni 11.824501  9.868336  9.943032
 Ni 13.641368  8.102941  9.945665
 Ni 13.667310  9.842129  8.141408
 Ni  8.257074 13.506037  9.965972
 Ni 10.054646 11.678238  9.972353
 Ni 10.081205 13.489054  8.152140
 Ni 11.855184 13.488581  9.968101
 Ni 13.632092 11.659278 10.006697
 Ni 13.661850 13.523213  8.166733
 Ni  8.264064  2.650402  9.944829
 Ni 10.087326  0.843754  9.988327
 Ni 10.069111  2.659263  8.133747
 Ni 11.831116  2.670713  9.955764
 Ni 13.627985  0.871471  9.929243
 Ni 13.633049  2.678214  8.153266
 Ni  8.234266  6.284069 13.611196
 Ni 10.027639  4.475799 13.583139
 Ni 10.016564  6.291005 11.755024
 Ni 11.821244  6.276214 13.591931
 Ni 13.644664  4.483981 13.573438
 Ni 13.618567  6.283464 11.796262
 Ni  8.224948  9.867029 13.596645
 Ni 10.031047  8.082423 13.591112
 Ni 10.020415  9.866248 11.765050
 Ni 11.856846  9.871144 13.573812
 Ni 13.654143  8.066312 13.574188
 Ni 13.650375  9.854325 11.745284
 Ni  8.237423 13.516279 13.556529
 Ni 10.056728 11.679276 13.558219
 Ni 10.053773 13.496664 11.770127
 Ni 11.845436 13.500297 13.569484
 Ni 13.671393 11.700070 13.540887
 Ni 13.639738 13.472258 11.756108
 Ni  8.223220  2.664725 13.571084
 Ni 10.043292  0.854948 13.563942
 Ni 10.043404  2.666565 11.768391
 Ni 11.842997  2.675768 13.576429
 Ni 13.636408  0.846206 13.582147
 Ni 13.601300  2.707810 11.761816
 Ni  1.032107  6.285743  2.708257
 Ni  2.796359  4.444059  2.716395
 Ni  0.954096  4.492157  0.893332
 Ni  4.558597  6.259065  2.741921
 Ni  6.375698  4.437677  2.740209
 Ni  4.596067  8.041464  0.930298
 Ni  4.638551  4.419669  0.922493
 Ni  0.989686  8.054684  0.916515
 Ni  0.961829  9.904326  2.711974
 Ni  4.610084  9.903055  2.665722
 Ni  6.375124  8.043011  2.736094
 Ni  6.434645  9.917599  0.963116
 Ni  2.758775  9.907224  0.892454
 Ni  0.939187 13.477613  2.708244
 Ni  4.543052 11.751709  0.909412
 Ni  2.752261 13.529795  0.856294
 Ni  4.560583 13.598847  2.693081
 Ni  4.611218 11.745032  4.478211
 Ni  6.435427 13.539328  0.911743
 Ni  0.970820  2.677355  2.688727
 Ni  4.566770  0.906216  0.904768
 Ni  0.987765  0.853431  0.843933
 Ni  4.577041  2.613866  2.709762
 Ni  6.415387  0.830227  2.689303
 Ni  6.421951  2.642513  0.956152
 Ni  2.782924  0.897325 13.474423
 Ni  0.969233  6.246713  6.300171
 Ni  2.804669  4.379177  6.337518
 Ni  0.963999  4.454357  4.488346
 Ni  6.428144  4.340763  6.309250
 Ni  6.371021  6.243359  4.536623
 Ni  4.605880  4.405135  4.530092
 Ni  1.045300  9.922382  6.364369
 Ni  2.802709  8.040311  6.281144
 Ni  2.807957  9.899548  4.516414
 Ni  1.018865  8.083243  4.520141
 Ni  4.585550  9.855494  6.325631
 Ni  6.440294  8.123536  6.305537
 Ni  4.532765  8.014406  4.526076
 Ni  0.925979  0.887744  4.488639
 Ni  0.978257 11.695414  4.539071
 Ni  4.550658 13.586825  6.353392
 Ni  6.410673 13.550855  4.532032
 Ni  2.749408 13.540658  4.527066
 Ni  2.741898  0.922804  6.385408
 Ni  2.782747  2.647517  4.480498
 Ni  4.612954  2.634318  6.324017
 Ni  6.405816  2.556476  4.525382
 Ni  0.964763  4.467737  8.122405
 Ni  6.456594  4.405668  9.934122
 Ni  4.653910  4.443903  8.111442
 Ni  1.017424  9.803641  9.967014
 Ni  0.974100  8.017237  8.124235
 Ni  2.885027  7.880973 10.030778
 Ni  6.378628  8.086537  9.936529
 Ni  6.439859  9.925009  8.088305
 Ni  4.650181  8.059296  8.095348
 Ni  0.956634 13.519471  9.970118
 Ni  2.779258 11.619492  9.908672
 Ni  2.694103 13.479193  8.097977
 Ni  4.592545 13.487234  9.920363
 Ni  6.426843 11.734697  9.960066
 Ni  6.407998 13.507391  8.182312
 Ni  4.512554 11.695241  8.160787
 Ni  0.949954  2.713089  9.961482
 Ni  2.756435  0.831491 10.014031
 Ni  0.972750  0.907545  8.203246
 Ni  4.649321  2.667656  9.957482
 Ni  6.405651  0.842463  9.949842
 Ni  6.422775  2.619914  8.154499
 Ni  4.560549  0.833287  8.200016
 Ni  0.939310  6.274668 13.589398
 Ni  2.819723  4.356431 13.550462
 Ni  2.797562  4.660512  9.923096
 Ni  0.939833  4.482780 11.761397
 Ni  4.650896  6.215919 13.579876
 Ni  6.443532  4.491676 13.573336
 Ni  6.454071  6.257943 11.770411
 Ni  4.665147  4.461642 11.746400
 Ni  0.974660 11.713856  0.886850
 Ni  2.827226  8.085154 13.560689
 Ni  2.893140  9.857630 11.717572
 Ni  1.000735  8.047045 11.759978
 Ni  6.392060  6.253165  0.941508
 Ni  6.392545  9.890218 11.816088
 Ni  6.410531  8.066968 13.633034
 Ni  0.989626 13.507963 13.513560
 Ni  2.773257 11.729735 13.543384
 Ni  0.986486 11.645393 11.715867
 Ni  6.433041 11.709340 13.591192
 Ni  6.415513 13.506942 11.733638
 Ni  4.637233 11.746088 11.774501
 Ni  0.942714  2.671149 13.525115
 Ni  4.628389  0.835182 11.727711
 Ni  6.443962  0.847945 13.551837
 Ni  6.466531  2.649572 11.723443
%endblock positions_abs_intermediate 
     kpoint_mp_grid 1 1 1 
     fix_com : false