#######################################################
#CASTEP cell file: /home/u2093113/Documents/kART/barriers/CASTEP/castep.cell
#Created using the Atomic Simulation Environment (ASE)#
#######################################################

%BLOCK LATTICE_CART
14.464828  0.000000  0.000000
 0.000000 14.464828  0.000000
 0.000000  0.000000 14.464828
%ENDBLOCK LATTICE_CART

%BLOCK POSITIONS_ABS
Ni  8.226536  6.248136  2.709122
Ni 10.048841  4.454026  2.725192
Ni 10.043637  6.272577  0.928432
Al  8.256539  4.450902  0.937053
Ni 11.838685  6.274445  2.727360
Ni 13.635308  4.472254  2.728224
Ni 13.634978  6.280885  0.918201
Al 11.842684  4.467956  0.917554
Ni  8.164044  9.947595  2.775117
Ni 10.038644  8.091721  2.720615
Ni 10.033914  9.890790  0.935133
Al  8.250339  8.095423  0.953676
Ni 11.845086  9.890708  2.729417
Ni 13.630581  8.083961  2.730108
Ni 13.637064  9.887212  0.917431
Al 11.835767  8.084304  0.922108
Ni  8.225271 13.484367  2.709675
Ni 10.058798 11.702839  2.721191
Ni 10.064539 13.515806  0.908760
Al  8.315703 11.713479  0.881515
Ni 11.856696 13.506879  2.722866
Ni 13.637471 11.694319  2.726830
Ni 13.642644 13.502115  0.913365
Al 11.845248 11.694340  0.913875
Ni  8.226472  2.651555  2.722904
Ni 10.061565  0.844850  2.715787
Ni 10.047777  2.653315  0.917045
Al  8.269971  0.845621  0.930755
Ni 11.849343  2.657959  2.725158
Ni 13.642020  0.850798  2.725427
Ni 13.642397  2.664822  0.915656
Al 11.854630  0.853913  0.910858
Ni  6.498132  6.285280  8.115640
Ni 10.010910  4.462428  6.332606
Ni 10.044928  6.249855  4.529067
Al  8.241352  4.447334  4.516442
Ni 11.823975  6.275464  6.346934
Ni 13.631956  4.475108  6.350534
Ni 13.625982  6.280111  4.540211
Al 11.839382  4.463274  4.539733
Ni  8.124841  9.882967  6.279237
Ni 10.014109  8.087708  6.336721
Ni 10.040712  9.894295  4.534582
Al  8.316708  8.026084  4.496598
Ni 11.834188  9.885721  6.347771
Ni 13.626272  8.082834  6.348827
Ni 13.632907  9.887433  4.540528
Al 11.825515  8.080889  4.537956
Ni  8.209442 13.520734  6.376018
Ni 10.034047 11.693845  6.357365
Ni 10.073175 13.519258  4.540259
Al  8.341339 11.755437  4.547648
Ni 11.851759 13.502886  6.354270
Ni 13.636938 11.691942  6.352172
Ni 13.638916 13.503537  4.539735
Al 11.845644 11.697394  4.542526
Ni  8.220261  2.605208  6.343939
Ni 10.046476  0.842114  6.351803
Ni 10.048438  2.653942  4.534284
Al  8.298617  0.838284  4.486048
Ni 11.841296  2.662911  6.346572
Ni 13.641071  0.851395  6.352459
Ni 13.638316  2.662213  4.539178
Al 11.852289  0.853256  4.539408
Ni  8.222279  6.279730  9.961546
Ni 10.031832  4.478485  9.964856
Ni 10.007613  6.277639  8.139769
Al  8.272872  4.450366  8.131872
Ni 11.819738  6.284704  9.959901
Ni 13.632719  4.482248  9.961832
Ni 13.627901  6.283443  8.155892
Al 11.823763  4.479963  8.151613
Ni  8.206975  9.890504  9.979929
Ni 10.007812  8.083476  9.960375
Ni 10.018575  9.881797  8.142443
Al  8.237762  8.100209  8.127947
Ni 11.829160  9.875611  9.961161
Ni 13.629497  8.082168  9.960746
Ni 13.631486  9.882476  8.157278
Al 11.813704  8.079558  8.150971
Ni  8.245653 13.492748  9.984623
Ni 10.051492 11.684064  9.980739
Ni 10.070818 13.498072  8.169469
Al  8.305771 11.691659  8.188984
Ni 11.855746 13.497059  9.972143
Ni 13.638373 11.686395  9.963250
Ni 13.639935 13.500846  8.160840
Al 11.838089 11.684479  8.159925
Ni  8.256492  2.658228  9.972601
Ni 10.080610  0.849208  9.987369
Ni 10.061372  2.665079  8.155660
Al  8.341767  0.843607  8.232926
Ni 11.846054  2.674299  9.969505
Ni 13.641187  0.853031  9.964614
Ni 13.633114  2.668321  8.157938
Al 11.848905  0.852575  8.160897
Ni  8.223035  6.278507 13.621157
Ni 10.033749  4.466565 13.590020
Ni 10.017758  6.285719 11.781346
Al  8.272857  4.467760 11.788466
Ni 11.831937  6.280261 13.579073
Ni 13.638672  4.477937 13.572532
Ni 13.631438  6.283502 11.766908
Al 11.828784  4.481861 11.772998
Ni  8.220434  9.903884 13.590073
Ni 10.025564  8.085813 13.595303
Ni 10.030410  9.879740 11.776542
Al  8.237475  8.088434 11.799413
Ni 11.836337  9.881473 13.579333
Ni 13.634599  8.083172 13.575066
Ni 13.635026  9.881021 11.767989
Al 11.823218  8.079473 11.771071
Ni  8.232640 13.516680 13.565023
Ni 10.057683 11.697016 13.565744
Ni 10.058783 13.500880 11.775777
Al  8.251172 11.696347 11.778211
Ni 11.854878 13.506812 13.571237
Ni 13.639247 11.690095 13.573455
Ni 13.647244 13.500812 11.768688
Al 11.847299 11.684746 11.771037
Ni  8.223820  2.639327 13.583179
Ni 10.049210  0.852214 13.572546
Ni 10.048483  2.665075 11.780898
Al  8.275262  0.844074 11.758654
Ni 11.848019  2.665851 13.575704
Ni 13.648913  0.852668 13.571636
Ni 13.642608  2.671331 11.768100
Al 11.855775  0.855151 11.776280
Ni  1.018586  6.234527  2.657266
Ni  2.766076  4.428670  2.674367
Al  4.755951  2.635455 13.526785
Ni  0.926124  4.416191  0.856924
Ni  4.504975  6.256532  2.666105
Ni  6.403845  4.446120  2.734260
Ni  4.580632  8.078368  0.898055
Ni  4.627267  4.404271  0.897352
Al  0.815915  0.835935 11.689360
Ni  0.935744  8.121270  0.819344
Ni  0.937499  9.953397  2.706205
Al  2.790614  2.748269 11.653127
Ni  4.557373  9.902824  2.666462
Ni  6.397112  8.080805  2.693688
Ni  6.431634  9.937926  0.955642
Ni  2.745514  9.944416  0.887875
Ni  0.958015 13.519144  2.702586
Ni  4.584438 11.762626  0.918897
Ni  2.753720 13.548688  0.852040
Al  4.656192 13.534121 13.596046
Ni  4.546532 13.573257  2.699626
Ni  4.611636 11.709588  4.499813
Ni  6.435414 13.532640  0.920916
Al  2.793096 13.451970 11.644903
Ni  0.948326  2.616990  2.675563
Ni  4.571672  0.892667  0.882402
Ni  0.966878  0.843414  0.822798
Ni  4.552847  2.615100  2.701833
Ni  6.410965  0.831929  2.733055
Ni  6.437257  2.637858  0.935040
Ni  2.796990  0.882749 13.440014
Ni  0.935866  6.234168  6.339142
Ni  2.816181  4.466992  6.350190
Al  4.606013  9.990973 13.662701
Ni  0.917603  4.402925  4.516919
Al  1.074552  9.960871 13.450816
Ni  6.468810  4.438877  6.306342
Ni  6.420553  6.314758  4.479610
Ni  4.626551  4.467305  4.517011
Ni  1.031970  9.891189  6.375285
Ni  2.789514  7.992528  6.284555
Ni  2.770551  9.882469  4.507698
Ni  0.959101  8.075346  4.506466
Ni  4.595986  9.782776  6.351557
Ni  8.175316  6.302030  6.309860
Al  2.873852  2.738957  8.281566
Ni  4.514557  7.997022  4.453319
Ni  0.975504  0.880764  4.547281
Al  0.973345 11.654863  8.187815
Ni  1.015525 11.775213  4.591170
Ni  4.561542 13.560659  6.373199
Ni  6.420892 13.538853  4.558487
Ni  2.774881 13.558764  4.545358
Al  4.712853  9.902928  9.972712
Al  2.799983  9.657755  8.159919
Ni  2.824914  0.931701  6.388363
Ni  2.768566  2.676367  4.512240
Ni  4.604069  2.672804  6.362442
Ni  6.414382  2.609853  4.538263
Al  4.790669  6.198207  9.924600
Al  4.742735  8.039400 11.879859
Al  2.764210  6.265869  8.061450
Al  0.913660  6.299766  9.972371
Ni  0.939178  4.480279  8.173048
Ni  6.512287  4.446892  9.947472
Ni  4.674103  4.510755  8.121903
Al  4.597236  0.881393  4.526645
Al  6.367630  0.837498  6.445088
Al  2.696807  0.793209  2.694975
Ni  0.962968  9.821557  9.972424
Al  0.993755  2.686364  6.391351
Ni  0.925138  8.044503  8.172194
Ni  2.875915  7.933334 10.023976
Ni  6.458118  8.088294  9.972956
Ni  6.432974  9.875890  8.103225
Ni  4.675792  8.013734  8.159951
Al  6.266840 11.758780  6.366952
Ni  0.945581 13.483057  9.929998
Ni  2.798323 11.610963  9.905519
Ni  2.777921 13.497305  8.179060
Al  1.033533 13.671619  6.402501
Ni  4.607942 13.479942  9.957436
Ni  6.447916 11.699259  9.928849
Ni  6.424658 13.499655  8.175193
Ni  4.571612 11.646666  8.156560
Al  2.922372 11.681418  6.256331
Ni  0.947240  2.695603  9.938742
Ni  2.774049  0.864013  9.997058
Al  6.252795  9.711543  4.550228
Ni  0.995913  0.907213  8.190825
Ni  4.644197  2.710346  9.982813
Ni  6.455083  0.843720  9.939007
Ni  6.442108  2.653255  8.163580
Ni  4.604277  0.872987  8.214839
Ni  0.946054  6.241603 13.534047
Ni  2.812070  4.375453 13.537680
Ni  2.809962  4.599729  9.954616
Ni  0.915562  4.465283 11.708383
Ni  4.632007  6.244119 13.596310
Ni  6.478052  4.453773 13.599022
Ni  6.475166  6.261621 11.802382
Ni  4.683744  4.477749 11.773033
Al  4.815482  6.324212  6.307834
Ni  0.970365 11.741037  0.852632
Ni  2.801704  8.088035 13.573783
Ni  2.884883  9.847642 11.733169
Ni  0.949940  8.069769 11.763901
Al  2.698696  6.156654  4.517939
Ni  6.402212  6.252150  0.953231
Ni  6.418495  9.904492 11.811764
Ni  6.443760  8.104125 13.658270
Al  2.706257  2.690809  0.842090
Ni  0.988079 13.493372 13.464728
Ni  2.820633 11.748970 13.524884
Al  6.284672 11.785784  2.712887
Ni  0.964429 11.685086 11.690935
Al  2.776793 11.739362  2.726880
Ni  6.437508 11.730183 13.607405
Ni  6.433980 13.511635 11.754871
Ni  4.648901 11.711591 11.763169
Al  2.759633  6.166715  0.802127
Al  2.779278  6.184246 11.905831
Ni  0.958619  2.641553 13.468450
Al  2.712659  8.185131  2.652627
Ni  4.637764  0.843999 11.734280
Ni  6.456414  0.832654 13.574143
Ni  6.466882  2.645519 11.747773
%ENDBLOCK POSITIONS_ABS

FIX_ALL_CELL: TRUE
KPOINT_MP_GRID: 1 1 1
