#######################################################
#CASTEP cell file: /home/u2093113/Documents/kART/barriers/CASTEP/castep.cell
#Created using the Atomic Simulation Environment (ASE)#
#######################################################

%BLOCK LATTICE_CART
14.464828  0.000000  0.000000
 0.000000 14.464828  0.000000
 0.000000  0.000000 14.464828
%ENDBLOCK LATTICE_CART

%BLOCK POSITIONS_ABS
Ni  8.216344  0.909105  4.515319
Ni 10.041335 13.570642  4.518341
Ni 10.033481  0.925280  2.723533
Al  8.253632 13.566898  2.730268
Ni 11.827536  0.927422  4.522451
Ni 13.627288 13.584234  4.518539
Ni 13.629047  0.925657  2.709991
Al 11.833692 13.581496  2.711161
Ni  8.204474  4.612366  4.511436
Ni 10.017865  2.744393  4.522004
Ni 10.043575  4.539903  2.714013
Al  8.243975  2.745191  2.739318
Ni 11.842926  4.532084  4.518944
Ni 13.631322  2.727438  4.519441
Ni 13.637044  4.528859  2.706518
Al 11.829911  2.729178  2.714521
Ni  8.213578  8.109301  4.509880
Ni 10.069255  6.351526  4.509646
Ni 10.060505  8.153570  2.702617
Al  8.294116  6.364752  2.685905
Ni 11.861482  8.150308  4.511222
Ni 13.639961  6.336055  4.515575
Ni 13.645886  8.146685  2.702420
Al 11.851409  6.338839  2.702005
Ni  8.229628 11.755272  4.506449
Ni 10.059551  9.945235  4.503065
Ni 10.042993 11.760646  2.708709
Al  8.264041  9.940909  2.726276
Ni 11.843802 11.767369  4.513436
Ni 13.641639  9.961448  4.514319
Ni 13.637873 11.775842  2.706520
Al 11.852691  9.960325  2.701352
Ni  6.505008  0.891308  9.919206
Ni 10.017014 13.563283  8.117874
Ni 10.017013  0.921948  6.318392
Al  8.243589 13.544891  6.301374
Ni 11.812185  0.925819  8.131824
Ni 13.621427 13.585719  8.138793
Ni 13.623780  0.924925  6.329900
Al 11.828028 13.579513  6.326840
Ni  8.191064  4.597326  8.126795
Ni  9.998045  2.740551  8.119527
Ni 10.039352  4.540565  6.325358
Al  8.229584  2.752667  6.294997
Ni 11.832015  4.529572  8.138869
Ni 13.624779  2.726066  8.139378
Ni 13.634085  4.529999  6.330275
Al 11.823408  2.729299  6.328319
Ni  8.201134  8.150379  8.151563
Ni 10.053038  6.354444  8.146712
Ni 10.073445  8.157347  6.326477
Al  8.336127  6.375308  6.332004
Ni 11.858462  8.149197  8.142855
Ni 13.638051  6.334513  8.142309
Ni 13.642387  8.147143  6.328220
Al 11.850538  6.339987  6.330353
Ni  8.232499 11.701320  8.134465
Ni 10.046636  9.940465  8.138775
Ni 10.049562 11.754567  6.319496
Al  8.300726  9.937080  6.270382
Ni 11.838009 11.767260  8.134259
Ni 13.640891  9.961681  8.141266
Ni 13.631760 11.774052  6.327419
Al 11.852648  9.958524  6.326046
Ni  8.218799  0.925251 11.754478
Ni 10.028676 13.584606 11.760214
Ni 10.002715  0.925513  9.930901
Al  8.283273 13.546807  9.930949
Ni 11.813605  0.929028 11.752049
Ni 13.624705 13.590857 11.752333
Ni 13.619534  0.926584  9.944672
Al 11.815192 13.589156  9.941451
Ni  8.200852  4.539636 11.763550
Ni 10.005042  2.730733 11.756397
Ni 10.026675  4.533511  9.944447
Al  8.238733  2.745834  9.924347
Ni 11.829515  4.522067 11.756260
Ni 13.625684  2.724465 11.751236
Ni 13.630281  4.524904  9.948544
Al 11.809247  2.724603  9.940810
Ni  8.239823  8.133667 11.774527
Ni 10.045947  6.330875 11.768932
Ni 10.069991  8.139851  9.958708
Al  8.288269  6.352303  9.969706
Ni 11.854995  8.139746 11.764977
Ni 13.640767  6.330570 11.756006
Ni 13.641975  8.145905  9.952255
Al 11.844528  6.331377  9.953909
Ni  8.258645 11.754643 11.770391
Ni 10.078609  9.951763 11.781493
Ni 10.062705 11.764452  9.948314
Al  8.342201  9.938775 10.021255
Ni 11.841333 11.780561 11.763174
Ni 13.638551  9.962453 11.756417
Ni 13.625995 11.778207  9.947859
Al 11.848034  9.957936  9.952109
Ni  8.215774  0.926835  0.946390
Ni 10.027303 13.576952  0.919734
Ni 10.011192  0.931099 13.573952
Al  8.269961 13.573304 13.584319
Ni 11.825183  0.926154  0.906748
Ni 13.632158 13.587594  0.900029
Ni 13.626041  0.926381 13.558085
Al 11.821983 13.590243 13.566805
Ni  8.213219  4.554991  0.922451
Ni 10.020700  2.733423  0.918229
Ni 10.024218  4.528969 13.567956
Al  8.229444  2.739284 13.592503
Ni 11.837240  4.526974  0.901227
Ni 13.631933  2.725674  0.900884
Ni 13.635975  4.524072 13.558432
Al 11.819828  2.724700 13.562647
Ni  8.224471  8.153570  0.899049
Ni 10.051448  6.342253  0.897154
Ni 10.054139  8.141208 13.569832
Al  8.246448  6.340541 13.570716
Ni 11.853697  8.148745  0.898559
Ni 13.642398  6.333859  0.897275
Ni 13.647217  8.145365 13.560084
Al 11.845199  6.329795 13.562893
Ni  8.219479 11.743520  0.915245
Ni 10.044384  9.955559  0.903893
Ni 10.044541 11.769095 13.577610
Al  8.271288  9.944302 13.556420
Ni 11.842858 11.774136  0.904823
Ni 13.647194  9.962266  0.897993
Ni 13.637583 11.780754 13.560180
Al 11.852369  9.961352 13.570602
Ni  0.999897  0.865387  4.437046
Ni  2.762899 13.536078  4.454204
Al  4.755305 11.741395  0.856426
Ni  0.920417 13.522272  2.636239
Ni  4.504404  0.941257  4.507436
Ni  6.404452 13.545108  4.514660
Ni  4.582694  2.731316  2.715250
Ni  4.625823 13.530057  2.697757
Al  0.817611  9.930827 13.478150
Ni  0.919942  2.766680  2.599020
Ni  0.925373  4.600255  4.495737
Al  2.789776 11.847581 13.447669
Ni  4.549753  4.549016  4.482628
Ni  6.423807  2.752870  4.486095
Ni  6.424436  4.601566  2.748661
Ni  2.737999  4.595927  2.683980
Ni  0.957569  8.163236  4.492869
Ni  4.584427  6.399979  2.739004
Ni  2.752956  8.186659  2.651909
Al  4.654035  8.167348  0.934549
Ni  4.541943  8.219749  4.509360
Ni  6.409728  4.601537  6.302626
Ni  6.427995  8.153298  2.734691
Al  2.795878  8.086958 13.437563
Ni  0.939401 11.725811  4.454794
Ni  4.571361  9.990869  2.676318
Ni  0.964278  9.947978  2.608727
Ni  4.549966 11.720037  4.479801
Ni  6.412825  9.944039  4.518089
Ni  6.434371 11.747328  2.721681
Ni  2.796749  9.981359  0.769465
Ni  0.933726  0.869947  8.129662
Ni  2.793425 13.541915  8.151749
Al  4.601222  4.636452  0.996495
Ni  0.900949 13.497701  6.303087
Al  1.075902  4.610630  0.780751
Ni  6.488658 13.507317  8.108248
Ni  6.413752  0.902922  6.273526
Ni  4.619652 13.544513  6.295585
Ni  1.046672  4.529224  8.150345
Ni  2.836522  2.606370  8.031800
Ni  2.774432  4.492418  6.283382
Ni  0.951390  2.706958  6.294962
Ni  4.591149  4.455036  8.122038
Ni  8.207811  0.908270  8.095977
Al  2.863833 11.836499 10.084265
Ni  6.455655  2.735099  8.089571
Ni  0.969696  9.994103  6.332564
Al  1.005311  6.296727  9.937216
Ni  1.029159  6.415518  6.379313
Ni  4.564949  8.230516  8.147551
Ni  6.398682  8.191711  6.345741
Ni  2.779415  8.229122  6.325836
Al  4.707347  4.548925 11.748454
Al  2.807892  4.299949  9.919338
Ni  2.818921 10.061682  8.179806
Ni  2.756202 11.782853  6.293092
Ni  4.606518 11.782043  8.157638
Ni  6.423866 11.710086  6.322111
Al  4.789952  0.841416 11.713082
Al  4.740263  2.690838 13.666449
Al  2.755400  0.902803  9.856252
Al  0.914006  0.950022 11.763489
Ni  0.931055 13.583367  9.972726
Ni  6.515739 13.543345 11.752783
Ni  4.672134 13.585261  9.942356
Al  4.594304 10.016368  6.313385
Al  6.375200  9.953770  8.231132
Al  2.690245  9.911263  4.476055
Ni  0.974296  4.467083 11.744438
Al  0.978596 11.789591  8.185248
Ni  0.939085  2.686516  9.941704
Ni  2.877592  2.584465 11.805440
Ni  6.451189  2.732493 11.759294
Ni  6.430964  4.555040  9.911958
Ni  4.670536  2.645782  9.930174
Al  6.209993  6.376067  8.052572
Ni  0.955107  8.113564 11.708026
Ni  2.805721  6.251759 11.682392
Ni  2.785453  8.138066  9.949904
Al  1.048384  8.313881  8.180355
Ni  4.606113  8.117483 11.736502
Ni  6.439020  6.351972 11.725509
Ni  6.420245  8.129642  9.943302
Ni  4.573035  6.293892  9.908975
Al  3.010602  6.335498  7.928699
Ni  0.944186 11.794570 11.735440
Ni  2.774661  9.960485 11.786868
Al  4.709319  2.778628  6.258072
Ni  0.994648 10.007179  9.980117
Ni  4.643650 11.803162 11.784224
Ni  6.453162  9.938939 11.729919
Ni  6.452640 11.747577  9.966125
Ni  4.606908  9.980932 10.001057
Ni  0.945074  0.887841  0.855597
Ni  2.813167 13.487047  0.860448
Ni  2.804997 13.701454 11.753404
Ni  0.915054 13.573793 13.498249
Ni  4.630864  0.896663  0.922791
Ni  6.473940 13.564200  0.926798
Ni  6.470653  0.908773 13.594301
Ni  4.682284 13.584519 13.564742
Al  4.772039  0.814143  8.131569
Ni  0.976473  6.386485  2.657357
Ni  2.804631  2.736026  0.910144
Ni  2.886101  4.493008 13.523601
Ni  0.954602  2.722268 13.554261
Al  2.670847  0.763373  6.303574
Ni  6.396979  0.900069  2.748492
Ni  6.412645  4.550775 13.599906
Ni  6.433594  2.755325  0.990775
Al  2.705014 11.801016  2.623863
Ni  0.989395  8.128015  0.793603
Ni  2.824098  6.391834  0.858785
Al  6.208043  6.402001  4.611115
Ni  0.971716  6.323760 13.476996
Al  2.805534  6.383842  4.560741
Ni  6.426967  6.373938  0.932022
Ni  6.428120  8.152708 13.550449
Ni  4.643131  6.352876 13.552757
Al  2.762361  0.808352  2.593338
Al  2.779865  0.835301 13.695363
Ni  0.958623 11.744708  0.787788
Al  2.664004  2.819246  4.413065
Ni  4.635831  9.939859 13.531184
Ni  6.451780  9.930446  0.911457
Ni  6.465510 11.742726 13.545794
%ENDBLOCK POSITIONS_ABS

FIX_ALL_CELL: TRUE
KPOINT_MP_GRID: 1 1 1
