#######################################################
#CASTEP cell file: /home/u2093113/Documents/kART/barriers/CASTEP/castep.cell
#Created using the Atomic Simulation Environment (ASE)#
#######################################################

%BLOCK LATTICE_CART
14.464828  0.000000  0.000000
 0.000000 14.464828  0.000000
 0.000000  0.000000 14.464828
%ENDBLOCK LATTICE_CART

%BLOCK POSITIONS_ABS
Ni  8.191803  6.245429  2.758706
Ni 10.039179  4.458797  2.726233
Ni 10.017728  6.274888  0.931489
Al  8.242153  4.464166  0.941073
Ni 11.833353  6.276512  2.718682
Ni 13.637901  4.475946  2.711129
Ni 13.632022  6.282733  0.905987
Al 11.831519  4.478780  0.906418
Ni  8.161943  9.947644  2.773466
Ni 10.021215  8.086784  2.727509
Ni 10.022047  9.875743  0.925475
Al  8.228765  8.081684  0.961444
Ni 11.842326  9.885360  2.713289
Ni 13.633631  8.082729  2.714542
Ni 13.635989  9.880603  0.903968
Al 11.822831  8.076966  0.913772
Ni  8.234092 13.492479  2.679036
Ni 10.062676 11.703439  2.698252
Ni 10.065724 13.515891  0.886063
Al  8.315230 11.705774  0.863125
Ni 11.863026 13.507578  2.696098
Ni 13.640273 11.691747  2.705882
Ni 13.645604 13.501413  0.896468
Al 11.842991 11.686374  0.896198
Ni  8.227331  2.649456  2.715415
Ni 10.068920  0.847954  2.688971
Ni 10.040126  2.668562  0.902472
Al  8.271354  0.856044  0.908133
Ni 11.851360  2.663383  2.704406
Ni 13.646592  0.853231  2.702897
Ni 13.642929  2.672548  0.900205
Al 11.854696  0.860911  0.890281
Ni  8.226844  6.252053  6.331570
Ni 10.052264  4.435277  6.314315
Ni 10.044420  6.251546  4.531207
Al  8.242389  4.427998  4.529853
Ni 11.836946  6.276354  6.330115
Ni 13.636675  4.473164  6.336471
Ni 13.632422  6.280858  4.524842
Al 11.849363  4.460705  4.521129
Ni  8.166948  9.972420  6.264145
Ni 10.036966  8.103348  6.316401
Ni 10.041904  9.903250  4.519817
Al  8.293895  8.028563  4.521677
Ni 11.847066  9.897978  6.328937
Ni 13.631660  8.086755  6.334606
Ni 13.639768  9.889621  4.522175
Al 11.833871  8.084645  4.522200
Ni  8.226750 13.529984  6.368246
Ni 10.061586 11.720124  6.341286
Ni 10.093351 13.527490  4.516221
Al  8.355591 11.788605  4.523210
Ni 11.870666 13.506601  6.340917
Ni 13.645406 11.694946  6.337403
Ni 13.646087 13.503396  4.518890
Al 11.856115 11.701442  4.518707
Ni  8.242032  2.565668  6.328959
Ni 10.070521  0.830884  6.339436
Ni 10.061538  2.639607  4.516670
Al  8.313149  0.825355  4.465916
Ni 11.861857  2.649023  6.329660
Ni 13.653768  0.848582  6.338362
Ni 13.646291  2.661638  4.519658
Al 11.867723  0.851449  4.515465
Ni  8.185234  6.281432  9.842408
Ni 10.042668  4.479985  9.946855
Ni 10.035503  6.276946  8.118148
Al  8.329301  4.380882  8.106432
Ni 11.828354  6.286292  9.948005
Ni 13.637774  4.483860  9.955188
Ni 13.632710  6.284727  8.144041
Al 11.841660  4.472668  8.141217
Ni  8.203852  9.891352  9.961566
Ni 10.017130  8.083791  9.940371
Ni 10.044247  9.907427  8.129767
Al  8.291655  8.160404  8.096559
Ni 11.836367  9.877638  9.957653
Ni 13.633434  8.083404  9.952312
Ni 13.636013  9.886757  8.147843
Al 11.828296  8.088234  8.136914
Ni  8.253602 13.496512  9.988753
Ni 10.058828 11.686325  9.981918
Ni 10.087485 13.502186  8.168900
Al  8.319862 11.710384  8.188143
Ni 11.865357 13.496624  9.974946
Ni 13.644996 11.685809  9.961758
Ni 13.650864 13.500276  8.155659
Al 11.854012 11.693357  8.155596
Ni  8.259331  2.655566  9.963471
Ni 10.091762  0.848160  9.990718
Ni 10.093686  2.639541  8.148494
Al  8.355718  0.837100  8.233134
Ni 11.856840  2.673713  9.969501
Ni 13.649307  0.852833  9.964589
Ni 13.639388  2.665345  8.150652
Al 11.868704  0.844889  8.158457
Ni  8.206249  6.281035 13.600619
Ni 10.016590  4.480710 13.573492
Ni  9.993243  6.288327 11.743786
Al  8.259624  4.483391 11.745404
Ni 11.816759  6.282909 13.566811
Ni 13.637483  4.485085 13.563585
Ni 13.633587  6.285684 11.759369
Al 11.826211  4.491473 11.763670
Ni  8.209979  9.885555 13.577187
Ni 10.006816  8.075390 13.579754
Ni 10.023325  9.868985 11.764437
Al  8.221243  8.075674 11.756590
Ni 11.829289  9.869358 13.569728
Ni 13.632642  8.079183 13.566584
Ni 13.637421  9.876217 11.763023
Al 11.819102  8.073840 11.760673
Ni  8.232160 13.516543 13.550843
Ni 10.053559 11.686277 13.553873
Ni 10.061736 13.500439 11.774191
Al  8.249493 11.688748 11.772236
Ni 11.855657 13.505399 13.561197
Ni 13.640082 11.684623 13.565026
Ni 13.652220 13.499676 11.766279
Al 11.849227 11.679091 11.769082
Ni  8.217342  2.658648 13.564937
Ni 10.046962  0.861840 13.559467
Ni 10.046711  2.676859 11.770569
Al  8.275329  0.852440 11.752658
Ni 11.843664  2.678951 13.565032
Ni 13.650913  0.857082 13.562652
Ni 13.646828  2.677145 11.764076
Al 11.860204  0.859316 11.775601
Ni  1.053467  6.236670  2.701954
Ni  2.776309  4.432670  2.701083
Al  4.756936  2.650503 13.518818
Ni  0.939015  4.431320  0.870388
Ni  4.515390  6.254547  2.719261
Ni  6.397219  4.440302  2.757654
Ni  4.585902  8.065505  0.914616
Ni  4.630763  4.415566  0.907178
Al  0.811060  0.843629 11.693145
Ni  0.955118  8.107357  0.838110
Ni  0.942664  9.950257  2.702721
Al  2.784799  2.757751 11.644663
Ni  4.557877  9.910154  2.666928
Ni  6.390820  8.063777  2.743967
Ni  6.428523  9.922113  0.960589
Ni  2.752037  9.929637  0.892225
Ni  0.948715 13.518100  2.677339
Ni  4.582536 11.758075  0.901622
Ni  2.750709 13.549608  0.830295
Al  4.656067 13.534502 13.584708
Ni  4.542962 13.583127  2.671804
Ni  4.606161 11.746422  4.483497
Ni  6.436210 13.540123  0.892453
Al  2.788307 13.451930 11.648923
Ni  0.945355  2.619211  2.666806
Ni  4.570864  0.900287  0.861418
Ni  0.965021  0.852201  0.808222
Ni  4.553702  2.601811  2.691758
Ni  6.415527  0.827948  2.709025
Ni  6.437396  2.648833  0.927016
Ni  2.794176  0.894998 13.431491
Ni  0.949174  6.232377  6.328623
Ni  2.773383  4.359006  6.333518
Al  4.607795  9.974665 13.656606
Ni  0.925112  4.399665  4.515552
Al  1.081697  9.940727 13.447302
Ni  6.459401  4.377892  6.303344
Ni  6.340184  6.254358  4.595973
Ni  4.615208  4.407195  4.538988
Ni  1.016251  9.920504  6.365816
Ni  2.770774  8.064523  6.264485
Ni  2.768559  9.914570  4.496021
Ni  0.959229  8.079982  4.508017
Ni  4.571288  9.873802  6.337435
Ni  6.426183  8.112061  6.278081
Al  2.854801  2.699929  8.274186
Ni  4.538009  8.023893  4.504471
Ni  0.952079  0.863079  4.524016
Al  0.958844 11.673992  8.187146
Ni  1.003500 11.790315  4.573934
Ni  4.557690 13.574592  6.364848
Ni  6.429460 13.548554  4.539271
Ni  2.765155 13.567961  4.526850
Al  4.710494  9.917067  9.957757
Al  2.791736  9.693670  8.150206
Ni  2.805698  0.919898  6.379229
Ni  2.752033  2.628695  4.488777
Ni  4.600102  2.612129  6.352507
Ni  6.423630  2.574949  4.530902
Al  4.701818  6.185566  9.950430
Al  4.738455  8.042269 11.851071
Al  2.868952  6.250724  7.914101
Al  0.953950  6.293990  9.902248
Ni  0.938270  4.468243  8.144933
Ni  6.491804  4.469522  9.879237
Ni  4.647750  4.470642  8.082515
Al  4.598455  0.865829  4.508112
Al  6.379785  0.821353  6.436750
Al  2.689483  0.786327  2.672092
Ni  0.960914  9.823956  9.957570
Al  0.957954  2.639616  6.379068
Ni  0.938646  8.047613  8.144438
Ni  2.861238  7.942942  9.986209
Ni  6.435417  8.059311  9.901565
Ni  6.433057  9.916771  8.101143
Ni  4.640478  8.036244  8.122126
Al  6.277369 11.799749  6.362587
Ni  0.935643 13.484038  9.940483
Ni  2.791890 11.620731  9.904477
Ni  2.766176 13.504316  8.177692
Al  1.011129 13.678501  6.391379
Ni  4.603937 13.483095  9.962957
Ni  6.450217 11.712583  9.930396
Ni  6.432495 13.508470  8.177957
Ni  4.569930 11.673390  8.153503
Al  2.903083 11.715504  6.246491
Ni  0.938507  2.693699  9.929917
Ni  2.764679  0.860025 10.002269
Al  6.258216  9.816777  4.499107
Ni  0.975592  0.893148  8.194338
Ni  4.636121  2.704720  9.969577
Ni  6.455867  0.840553  9.940444
Ni  6.446103  2.630204  8.155955
Ni  4.601379  0.860788  8.215973
Ni  0.958331  6.243323 13.537702
Ni  2.814998  4.385512 13.538032
Ni  2.790974  4.585188  9.912402
Ni  0.919726  4.475590 11.691601
Ni  4.632029  6.246592 13.578883
Ni  6.473076  4.465783 13.584349
Ni  6.469083  6.259371 11.755707
Ni  4.674525  4.472713 11.757826
Al  6.328151  6.256656  7.892024
Ni  0.971519 11.729807  0.839246
Ni  2.808986  8.080406 13.569981
Ni  2.883741  9.842637 11.720341
Ni  0.958733  8.056318 11.739920
Al  2.797860  6.155775  4.621674
Ni  6.395112  6.252359  0.959913
Ni  6.416405  9.888979 11.785281
Ni  6.433568  8.095306 13.641282
Al  2.709737  2.704366  0.842995
Ni  0.986050 13.492926 13.457244
Ni  2.819739 11.736967 13.518424
Al  6.285435 11.817618  2.678876
Ni  0.962277 11.677242 11.691517
Al  2.773914 11.749960  2.708477
Ni  6.437017 11.716112 13.598535
Ni  6.432916 13.512514 11.754672
Ni  4.648436 11.706247 11.761730
Al  2.778485  6.169068  0.820857
Al  2.766362  6.182703 11.891861
Ni  0.959867  2.659870 13.466357
Al  2.733587  8.175689  2.693728
Ni  4.636074  0.853555 11.731040
Ni  6.457146  0.847241 13.557296
Ni  6.463323  2.666311 11.722410
%ENDBLOCK POSITIONS_ABS

FIX_ALL_CELL: TRUE
KPOINT_MP_GRID: 1 1 1
