#######################################################
#CASTEP cell file: /home/u2093113/Documents/kART/barriers/CASTEP/castep.cell
#Created using the Atomic Simulation Environment (ASE)#
#######################################################

%BLOCK LATTICE_CART
14.464828  0.000000  0.000000
 0.000000 14.464828  0.000000
 0.000000  0.000000 14.464828
%ENDBLOCK LATTICE_CART

%BLOCK POSITIONS_ABS
Ni  8.217291  6.242706 13.559559
Ni 10.041353  4.452771 13.570273
Ni 10.033583  6.269871 11.769704
Al  8.255104  4.446699 11.774397
Ni 11.824196  6.272301 13.577085
Ni 13.629983  4.474755 13.568480
Ni 13.626273  6.278933 11.757592
Al 11.835818  4.472677 11.756312
Ni  8.166074  9.950041 13.612719
Ni 10.024691  8.084851 13.569789
Ni 10.032048  9.880731 11.773937
Al  8.243432  8.089682 11.794255
Ni 11.840602  9.879950 13.569735
Ni 13.624973  8.076362 13.571317
Ni 13.633384  9.876029 11.755908
Al 11.826373  8.074836 11.762665
Ni  8.234521 13.490167 13.532962
Ni 10.065907 11.701097 13.553522
Ni 10.074451 13.513255 11.741252
Al  8.321966 11.711267 11.714734
Ni 11.863969 13.504117 13.555395
Ni 13.636426 11.685957 13.563415
Ni 13.644601 13.497585 11.749499
Al 11.848160 11.684700 11.750092
Ni  8.230722  2.639755 13.557573
Ni 10.071782  0.843807 13.545784
Ni 10.050855  2.656287 11.752155
Al  8.277551  0.845478 11.759950
Ni 11.849755  2.661443 13.562235
Ni 13.643285  0.851505 13.561063
Ni 13.640899  2.669547 11.752756
Al 11.860702  0.855584 11.745051
Ni  8.129436  6.249336  2.760135
Ni 10.006484  4.447233  2.713127
Ni 10.009901  6.246289  0.927556
Al  8.239371  4.425613  0.900076
Ni 11.813810  6.272668  2.723179
Ni 13.628967  4.474774  2.724706
Ni 13.622404  6.277265  0.916539
Al 11.829522  4.464705  0.918148
Ni  8.155655  9.960755  2.648383
Ni  9.990706  8.084051  2.714605
Ni 10.034186  9.893024  0.908523
Al  8.293529  8.026129  0.888612
Ni 11.827310  9.878806  2.721891
Ni 13.622981  8.077742  2.722830
Ni 13.629329  9.878824  0.914691
Al 11.813371  8.072793  0.918707
Ni  8.218168 13.524435  2.747484
Ni 10.051349 11.708435  2.728775
Ni 10.088561 13.523277  0.906715
Al  8.351195 11.779893  0.906644
Ni 11.862167 13.502637  2.728051
Ni 13.635187 11.684863  2.725277
Ni 13.640212 13.499553  0.910986
Al 11.849484 11.692321  0.912591
Ni  8.230008  2.571614  2.716636
Ni 10.059320  0.834007  2.726532
Ni 10.052599  2.643514  0.907013
Al  8.308057  0.826283  0.852109
Ni 11.842752  2.660175  2.722197
Ni 13.643991  0.850760  2.726127
Ni 13.636734  2.664773  0.912547
Al 11.860697  0.853037  0.909809
Ni  8.152833  6.274816  6.260582
Ni 10.018481  4.478246  6.331730
Ni  9.994409  6.273168  4.511229
Al  8.248977  4.431024  4.508213
Ni 11.811514  6.282910  6.327870
Ni 13.631106  4.483014  6.334052
Ni 13.624841  6.281174  4.528089
Al 11.818907  4.477470  4.525920
Ni  8.207822  9.901628  6.351870
Ni  9.988293  8.076115  6.326303
Ni 10.006502  9.878883  4.513486
Al  8.206585  8.096249  4.499237
Ni 11.823016  9.865764  6.331738
Ni 13.626385  8.076648  6.331687
Ni 13.629498  9.875337  4.529972
Al 11.804639  8.075699  4.522136
Ni  8.252388 13.491792  6.368101
Ni 10.056828 11.682278  6.357069
Ni 10.081783 13.497984  4.547343
Al  8.312338 11.707952  4.567648
Ni 11.862516 13.492560  6.348903
Ni 13.638121 11.678038  6.337404
Ni 13.641995 13.496271  4.535849
Al 11.840565 11.678206  4.535587
Ni  8.263711  2.636584  6.352738
Ni 10.090055  0.843438  6.365892
Ni 10.060134  2.657666  4.532334
Al  8.348267  0.830696  4.611605
Ni 11.845271  2.676233  6.343022
Ni 13.642907  0.852434  6.339781
Ni 13.634217  2.668704  4.532309
Al 11.855757  0.851449  4.537773
Ni  8.216175  6.274777  9.990679
Ni 10.027918  4.469338  9.957418
Ni  9.987073  6.283593  8.131469
Al  8.268632  4.464406  8.151280
Ni 11.819563  6.278770  9.944757
Ni 13.633950  4.481298  9.943883
Ni 13.627810  6.281894  8.137302
Al 11.819484  4.487304  8.140143
Ni  8.218860  9.898255  9.964247
Ni 10.016380  8.077678  9.963713
Ni 10.026900  9.872787  8.147977
Al  8.229599  8.085123  8.164084
Ni 11.833280  9.869204  9.951231
Ni 13.629084  8.075306  9.946858
Ni 13.631741  9.870447  8.139922
Al 11.811447  8.069854  8.137716
Ni  8.239229 13.514103  9.938476
Ni 10.063180 11.689286  9.939137
Ni 10.067606 13.496332  8.153040
Al  8.255218 11.694882  8.158404
Ni 11.861125 13.501811  9.943739
Ni 13.638939 11.680742  9.946371
Ni 13.649674 13.495762  8.142923
Al 11.849995 11.675518  8.144807
Ni  8.226757  2.638696  9.952330
Ni 10.057893  0.851911  9.944589
Ni 10.051588  2.664906  8.153631
Al  8.281927  0.838221  8.138526
Ni 11.848671  2.671194  9.946837
Ni 13.650387  0.853276  9.944084
Ni 13.641448  2.675067  8.140693
Al 11.861688  0.854770  8.151097
Ni  1.031591  6.231580 13.509004
Ni  2.773199  4.425446 13.519163
Al  4.754134  2.639546  9.893134
Ni  0.933786  4.421751 11.696672
Ni  4.517358  6.250687 13.523919
Ni  6.406681  4.423098 13.568488
Ni  4.587074  8.070026 11.742277
Ni  4.630633  4.401701 11.737481
Al  0.814441  0.836450  8.065371
Ni  0.949063  8.109755 11.665387
Ni  0.946551  9.942015 13.548563
Al  2.791499  2.752637  8.022620
Ni  4.555843  9.904759 13.502416
Ni  6.398888  8.074548 13.549424
Ni  6.431371  9.933999 11.799574
Ni  2.749300  9.931493 11.728122
Ni  0.954357 13.516759 13.535302
Ni  4.577914 11.760729 11.750139
Ni  2.746669 13.547681 11.683642
Al  4.650137 13.531269  9.969342
Ni  4.537425 13.582139 13.524393
Ni  4.603808 11.733980  0.862899
Ni  6.434702 13.539427 11.745772
Al  2.787236 13.445736  8.022088
Ni  0.948081  2.620152 13.512194
Ni  4.565382  0.895139 11.709756
Ni  0.965080  0.847379 11.656715
Ni  4.551879  2.602128 13.535261
Ni  6.412058  0.825668 13.560216
Ni  6.438253  2.630787 11.766163
Ni  2.791391  0.885006  9.809772
Ni  0.946350  6.229202  2.715380
Ni  2.815839  4.441821  2.732872
Al  4.608281  9.980219 10.035830
Ni  0.925564  4.401208  0.895248
Al  1.081392  9.945637  9.823593
Ni  6.475240  4.383936  2.693865
Ni  6.421051  6.255976  0.858556
Ni  4.628625  4.434478  0.892695
Ni  1.039502  9.888726  2.748804
Ni  2.806672  7.989824  2.659682
Ni  2.783753  9.879343  0.883955
Ni  0.968182  8.068936  0.887159
Ni  4.577178  9.838060  2.719464
Ni  6.448391  8.102304  2.659880
Al  2.873765  2.729154  4.661320
Ni  4.549094  7.995733  0.855985
Ni  0.968803  0.878108  0.917548
Al  0.973889 11.650680  4.563168
Ni  1.017397 11.770146  0.961116
Ni  4.557008 13.566590  2.745153
Ni  6.423353 13.544880  0.922495
Ni  2.766615 13.562608  0.913232
Al  4.717130  9.908155  6.342896
Al  2.811716  9.654661  4.530490
Ni  2.816670  0.925417  2.763697
Ni  2.764594  2.663396  0.884039
Ni  4.599710  2.646244  2.738240
Ni  6.418970  2.583443  0.908715
Al  4.877851  6.201590  6.224666
Al  4.752263  8.028362  8.238138
Al  2.780588  6.260980  4.432371
Al  0.923374  6.297858  6.336580
Ni  0.944507  4.476431  4.548187
Ni  6.517680  4.416347  6.314441
Ni  4.710464  4.490905  4.502036
Al  4.592999  0.873459  0.894902
Al  6.370411  0.825390  2.814918
Al  2.688545  0.794033 13.526267
Ni  0.970700  9.813697  6.342197
Al  0.991415  2.678620  2.768240
Ni  0.936183  8.041004  4.541661
Ni  2.897303  7.923775  6.386948
Ni  6.463227  8.104607  6.336716
Ni  6.437800  9.917409  4.487118
Ni  4.712038  7.998698  4.520332
Al  6.270184 11.784180  2.738656
Ni  0.942253 13.477692  6.308073
Ni  2.798160 11.607964  6.280664
Ni  2.772599 13.495857  4.555846
Al  1.026283 13.670795  2.776135
Ni  4.604697 13.477659  6.338527
Ni  6.449288 11.709610  6.314398
Ni  6.427377 13.502915  4.554388
Ni  4.571962 11.658740  4.532552
Al  2.914309 11.694881  2.628475
Ni  0.948308  2.694819  6.313308
Ni  2.768583  0.857410  6.376737
Al  6.251061  9.804120  0.865789
Ni  0.991546  0.902438  4.568771
Ni  4.642449  2.690350  6.362051
Ni  6.455735  0.831998  6.323871
Ni  6.447627  2.618042  4.543570
Ni  4.600971  0.862463  4.593347
Ni  0.961342  6.240678  9.902000
Ni  2.819509  4.381234  9.905771
Ni  2.828919  4.602510  6.318241
Ni  0.924749  4.469873  8.074449
Ni  4.639622  6.240734  9.966432
Ni  6.478419  4.451356  9.966984
Ni  6.481339  6.256653  8.160965
Ni  4.690092  4.483554  8.131024
Al  4.839102  6.232076  2.731053
Ni  0.972236 11.730106 11.689609
Ni  2.812859  8.077721  9.942433
Ni  2.892162  9.837385  8.102034
Ni  0.961445  8.061217  8.128770
Al  2.726820  6.150130  0.912022
Ni  6.403170  6.246443 11.795390
Ni  6.418281  9.904560  8.185684
Ni  6.442600  8.099759 10.028264
Al  2.706489  2.695525 11.676492
Ni  0.986272 13.488610  9.837511
Ni  2.818129 11.738587  9.897656
Al  6.283009 11.816894 13.525279
Ni  0.965268 11.674559  8.065623
Al  2.773271 11.739095 13.559758
Ni  6.437358 11.725549  9.985456
Ni  6.434515 13.507876  8.138103
Ni  4.647064 11.708578  8.142317
Al  2.771315  6.164290 11.648305
Al  2.799470  6.180827  8.258723
Ni  0.961189  2.649421  9.839043
Al  2.732620  8.175047 13.511161
Ni  4.633708  0.836854  8.113833
Ni  6.456356  0.832514  9.943942
Ni  6.466885  2.639006  8.121862
%ENDBLOCK POSITIONS_ABS

FIX_ALL_CELL: TRUE
KPOINT_MP_GRID: 1 1 1
