#######################################################
#CASTEP cell file: /home/u2093113/Documents/kART/barriers/CASTEP/castep.cell
#Created using the Atomic Simulation Environment (ASE)#
#######################################################

%BLOCK LATTICE_CART
14.464828  0.000000  0.000000
 0.000000 14.464828  0.000000
 0.000000  0.000000 14.464828
%ENDBLOCK LATTICE_CART

%BLOCK POSITIONS_ABS
Ni  8.217263  6.242701  2.717541
Ni 10.041346  4.452704  2.728295
Ni 10.033584  6.269849  0.927766
Al  8.255131  4.446622  0.932493
Ni 11.824169  6.272261  2.735153
Ni 13.629946  4.474689  2.726603
Ni 13.626265  6.278880  0.915718
Al 11.835820  4.472612  0.914412
Ni  8.165951  9.950057  2.770738
Ni 10.024635  8.084840  2.727800
Ni 10.031957  9.880697  0.931995
Al  8.243364  8.089656  0.952289
Ni 11.840531  9.879923  2.727823
Ni 13.624937  8.076319  2.729436
Ni 13.633350  9.875987  0.914021
Al 11.826353  8.074813  0.920758
Ni  8.234411 13.490094  2.691066
Ni 10.065790 11.701059  2.711616
Ni 10.074365 13.513158  0.899343
Al  8.321834 11.711189  0.872809
Ni 11.863904 13.504041  2.713501
Ni 13.636376 11.685903  2.721534
Ni 13.644548 13.497517  0.907604
Al 11.848090 11.684642  0.908180
Ni  8.230754  2.639615  2.715561
Ni 10.071749  0.843691  2.703865
Ni 10.050836  2.656185  0.910232
Al  8.277506  0.845346  0.918011
Ni 11.849738  2.661350  2.720325
Ni 13.643243  0.851427  2.719177
Ni 13.640865  2.669470  0.910863
Al 11.860653  0.855491  0.903147
Ni  8.129495  6.249313  6.382841
Ni 10.006446  4.447195  6.335954
Ni 10.009868  6.246274  4.550360
Al  8.239347  4.425580  4.522891
Ni 11.813753  6.272625  6.346066
Ni 13.628915  4.474721  6.347639
Ni 13.622357  6.277208  4.539474
Al 11.829463  4.464647  4.541040
Ni  8.155530  9.960683  6.271263
Ni  9.990638  8.084042  6.337468
Ni 10.034075  9.893024  4.531415
Al  8.293477  8.026154  4.511379
Ni 11.827230  9.878758  6.344821
Ni 13.622939  8.077684  6.345757
Ni 13.629276  9.878773  4.537638
Al 11.813306  8.072768  4.541607
Ni  8.218149 13.524373  6.370390
Ni 10.051243 11.708366  6.351693
Ni 10.088511 13.523189  4.529652
Al  8.351046 11.779889  4.529566
Ni 11.862121 13.502538  6.350989
Ni 13.635143 11.684788  6.348232
Ni 13.640163 13.499482  4.533939
Al 11.849410 11.692260  4.535526
Ni  8.229949  2.571688  6.339537
Ni 10.059279  0.833952  6.349476
Ni 10.052579  2.643413  4.529894
Al  8.308088  0.826198  4.474981
Ni 11.842698  2.660133  6.345123
Ni 13.643918  0.850702  6.349088
Ni 13.636676  2.664709  4.535500
Al 11.860662  0.852947  4.532740
Ni  8.152814  6.274724  9.883630
Ni 10.018479  4.478256  9.954674
Ni  9.994385  6.273168  8.134123
Al  8.249043  4.431132  8.131124
Ni 11.811487  6.282871  9.950782
Ni 13.631064  4.482965  9.956984
Ni 13.624800  6.281116  8.151015
Al 11.818845  4.477435  8.148826
Ni  8.207752  9.901533  9.974727
Ni  9.988264  8.076073  9.949212
Ni 10.006383  9.878798  8.136383
Al  8.206525  8.096100  8.122087
Ni 11.822981  9.865701  9.954646
Ni 13.626359  8.076577  9.954616
Ni 13.629472  9.875261  8.152905
Al 11.804594  8.075662  8.145037
Ni  8.252328 13.491764  9.991023
Ni 10.056700 11.682146  9.979949
Ni 10.081710 13.497880  8.170257
Al  8.312271 11.707807  8.190544
Ni 11.862442 13.492445  9.971816
Ni 13.638090 11.677968  9.960334
Ni 13.641929 13.496205  8.158800
Al 11.840496 11.678101  8.158515
Ni  8.263842  2.636605  9.975639
Ni 10.090041  0.843349  9.988777
Ni 10.060084  2.657639  8.155191
Al  8.348198  0.830714  8.234546
Ni 11.845194  2.676199  9.965936
Ni 13.642837  0.852380  9.962714
Ni 13.634161  2.668662  8.155253
Al 11.855693  0.851393  8.160705
Ni  8.216172  6.274734 13.613643
Ni 10.027911  4.469291 13.580381
Ni  9.987103  6.283564 11.754428
Al  8.268624  4.464303 11.774238
Ni 11.819578  6.278740 13.567711
Ni 13.633917  4.481235 13.566820
Ni 13.627780  6.281834 11.760239
Al 11.819452  4.487258 11.763078
Ni  8.218757  9.898172 13.587126
Ni 10.016364  8.077649 13.586631
Ni 10.026808  9.872692 11.770869
Al  8.229569  8.085065 11.787019
Ni 11.833235  9.869154 13.574142
Ni 13.629077  8.075260 13.569807
Ni 13.631724  9.870387 11.762853
Al 11.811450  8.069826 11.760647
Ni  8.239176 13.513955 13.561372
Ni 10.063080 11.689178 13.562019
Ni 10.067537 13.496192 11.775915
Al  8.255124 11.694778 11.781249
Ni 11.861056 13.501721 13.566640
Ni 13.638899 11.680680 13.569292
Ni 13.649617 13.495695 11.765842
Al 11.849923 11.675416 11.767701
Ni  8.226737  2.638551 13.575194
Ni 10.057849  0.851810 13.567513
Ni 10.051591  2.664856 11.776589
Al  8.281956  0.838145 11.761431
Ni 11.848636  2.671123 13.569770
Ni 13.650331  0.853207 13.567004
Ni 13.641397  2.675015 11.763620
Al 11.861625  0.854697 11.774004
Ni  1.031618  6.231503  2.666979
Ni  2.773166  4.425407  2.677185
Al  4.754201  2.639362 13.516046
Ni  0.933763  4.421529  0.854725
Ni  4.517254  6.250645  2.681878
Ni  6.406684  4.423037  2.726446
Ni  4.587024  8.069962  0.900374
Ni  4.630607  4.401504  0.895485
Al  0.814496  0.836467 11.688160
Ni  0.949053  8.109655  0.823518
Ni  0.946634  9.941958  2.706637
Al  2.791481  2.752699 11.645410
Ni  4.555737  9.904711  2.660443
Ni  6.398785  8.074569  2.707404
Ni  6.431241  9.933963  0.957608
Ni  2.749251  9.931552  0.886207
Ni  0.954429 13.516684  2.693361
Ni  4.577832 11.760716  0.908179
Ni  2.746665 13.547644  0.841681
Al  4.650131 13.531293 13.592085
Ni  4.537360 13.582090  2.682424
Ni  4.603753 11.733861  4.485784
Ni  6.434619 13.539302  0.903797
Al  2.787198 13.445708 11.644975
Ni  0.948093  2.620106  2.670277
Ni  4.565319  0.894995  0.867808
Ni  0.965137  0.847267  0.814788
Ni  4.551826  2.602060  2.693310
Ni  6.412025  0.825577  2.718215
Ni  6.438232  2.630625  0.924273
Ni  2.791403  0.884962 13.432484
Ni  0.946369  6.228995  6.338272
Ni  2.815863  4.441650  6.355597
Al  4.608240  9.980261 13.658686
Ni  0.925370  4.401148  4.518133
Al  1.081409  9.945618 13.446416
Ni  6.475224  4.383910  6.316819
Ni  6.421047  6.255950  4.481333
Ni  4.628702  4.434424  4.515477
Ni  1.039574  9.888660  6.371682
Ni  2.806644  7.989699  6.282439
Ni  2.783749  9.879252  4.506876
Ni  0.968165  8.068792  4.510088
Ni  4.577119  9.837970  6.342320
Ni  6.448301  8.102144  6.282657
Al  2.873877  2.728641  8.284139
Ni  4.549053  7.995607  4.478829
Ni  0.968784  0.878110  4.540512
Al  0.973988 11.650649  8.186099
Ni  1.017467 11.770028  4.584041
Ni  4.557075 13.566506  6.368022
Ni  6.423276 13.544866  4.545420
Ni  2.766606 13.562509  4.536053
Al  4.717049  9.907920  9.965658
Al  2.811723  9.654429  8.153346
Ni  2.816710  0.925151  6.386278
Ni  2.764552  2.663455  4.506957
Ni  4.599950  2.646089  6.360957
Ni  6.419050  2.583543  4.531541
Al  4.878057  6.201503  9.847586
Al  4.752216  8.028222 11.861071
Al  2.780579  6.261091  8.055152
Al  0.923112  6.297854  9.959467
Ni  0.944909  4.476329  8.171222
Ni  6.517620  4.416269  9.937336
Ni  4.709931  4.490747  8.124983
Al  4.593070  0.873426  4.517755
Al  6.370526  0.825367  6.437797
Al  2.688522  0.794081  2.684435
Ni  0.970766  9.813598  9.964958
Al  0.991101  2.678541  6.390967
Ni  0.936052  8.040897  8.164532
Ni  2.897309  7.923293 10.009846
Ni  6.463231  8.104534  9.959573
Ni  6.437683  9.917260  8.109918
Ni  4.712084  7.998504  8.143148
Al  6.270133 11.784007  6.361571
Ni  0.942131 13.477648  9.930984
Ni  2.798155 11.607978  9.903511
Ni  2.772632 13.496035  8.178764
Al  1.026296 13.670747  6.399020
Ni  4.604829 13.477627  9.961480
Ni  6.449228 11.709410  9.937278
Ni  6.427486 13.502829  8.177375
Ni  4.571893 11.658719  8.155479
Al  2.914329 11.694871  6.251495
Ni  0.948682  2.694854  9.936067
Ni  2.768619  0.857305  9.999565
Al  6.250960  9.804055  4.488613
Ni  0.991335  0.902253  8.191543
Ni  4.642033  2.690502  9.984730
Ni  6.455762  0.832046  9.946648
Ni  6.447595  2.618177  8.166470
Ni  4.601240  0.862262  8.216163
Ni  0.961132  6.240571 13.525009
Ni  2.819454  4.381114 13.528685
Ni  2.829115  4.603059  9.941380
Ni  0.924595  4.469838 11.697394
Ni  4.639630  6.240687 13.589351
Ni  6.478463  4.451094 13.589900
Ni  6.481382  6.256554 11.783976
Ni  4.690091  4.483655 11.754102
Al  4.839064  6.231854  6.353853
Ni  0.972317 11.730049  0.847635
Ni  2.812830  8.077791 13.565466
Ni  2.892168  9.837160 11.724696
Ni  0.961316  8.061159 11.751673
Al  2.726737  6.150020  4.534908
Ni  6.403150  6.246334  0.953485
Ni  6.418210  9.904538 11.808532
Ni  6.442528  8.099742 13.651199
Al  2.706468  2.695362  0.834470
Ni  0.986275 13.488637 13.460339
Ni  2.818112 11.738534 13.520457
Al  6.282878 11.816894  2.683370
Ni  0.965315 11.674444 11.688493
Al  2.773269 11.738943  2.717761
Ni  6.437271 11.725500 13.608320
Ni  6.434489 13.507870 11.760951
Ni  4.647008 11.708424 11.765150
Al  2.771300  6.164071  0.806142
Al  2.799322  6.181163 11.882271
Ni  0.961065  2.649311 13.461909
Al  2.732570  8.174946  2.669177
Ni  4.633625  0.836960 11.736570
Ni  6.456369  0.832407 13.566778
Ni  6.466863  2.639034 11.744755
%ENDBLOCK POSITIONS_ABS

FIX_ALL_CELL: TRUE
KPOINT_MP_GRID: 1 1 1
