#######################################################
#CASTEP cell file: /home/u2093113/Documents/kART/barriers/CASTEP/castep.cell
#Created using the Atomic Simulation Environment (ASE)#
#######################################################

%BLOCK LATTICE_CART
14.464828  0.000000  0.000000
 0.000000 14.464828  0.000000
 0.000000  0.000000 14.464828
%ENDBLOCK LATTICE_CART

%BLOCK POSITIONS_ABS
Ni 13.599276  4.520977  6.338478
Al 13.637954  2.720842  4.537621
Ni 13.595241  8.241204  6.312626
Al 13.623008  6.363332  4.537157
Ni 13.597986 11.723606  6.304887
Al 13.691133  9.971442  4.451807
Ni 13.607679  0.897822  6.321373
Al 13.644573 13.558787  4.521493
Ni 11.832246  4.533660 11.727391
Al 13.617199  2.694624  8.130398
Ni 13.566315  8.204553  9.955368
Al 13.611619  6.374622  8.127182
Ni 13.575317 11.761776  9.979148
Al 13.715164  9.991962  8.151442
Ni 13.595072  0.857582  9.956199
Al 13.668130 13.545298  8.089629
Ni 13.602381  4.547456 13.542931
Al 13.648368  2.715184 11.737383
Ni 13.591524  8.139171 13.562609
Al 13.624341  6.358637 11.716185
Ni 13.620656 11.749561 13.585913
Al 13.674958  9.955609 11.803397
Ni 13.631390  0.926068 13.567277
Al 13.712948 13.562026 11.836952
Ni 13.591460  4.550888  2.736851
Al 13.663502  2.730719  0.904309
Ni 13.603119  8.149032  2.704753
Al 13.639492  6.345992  0.920035
Ni 13.609324 11.773375  2.684003
Al 13.642308  9.952262  0.900278
Ni 13.602720  0.903828  2.709710
Al 13.653852 13.572856  0.886742
Ni  0.888476  2.725097  6.323729
Ni  0.893979  4.509994  4.528064
Ni  2.743560  4.522802  6.255092
Ni  4.457446  2.598683  6.273788
Ni  4.526687  4.465981  4.454159
Ni  2.677536  2.666401  4.507322
Ni  6.302967  4.424220  6.253581
Ni  8.142583  2.628275  6.272086
Al 10.136629  0.933249  2.648937
Ni  6.291605  2.655355  4.455573
Ni  9.944045  4.501642  6.311578
Ni 11.803869  2.679963  6.332097
Ni  9.937422  8.201422  6.285606
Ni 10.003850  2.703226  4.497374
Ni  0.904366  6.331058  6.347539
Ni  0.905915  8.169665  4.586386
Ni  2.778110  8.160813  6.360339
Al  6.188501 13.559059  0.848756
Ni  4.545870  6.451045  2.860040
Ni  2.716591  6.368103  4.566019
Ni  6.324101  8.213905  6.260240
Al  8.147832  1.026920  0.826900
Al  2.529193  0.801703  6.237020
Al  2.797457 13.563079  0.877030
Ni  9.956409  9.986615  8.090776
Ni 11.855713  6.386794  6.328385
Ni 11.802279  8.204046  4.510900
Ni  8.136400  8.148423  4.486814
Ni  0.876321  9.967131  6.364364
Al  2.517867 10.047441  0.896608
Al  4.547448  0.854818  4.411726
Ni  4.527005 10.089800  6.327654
Al  0.763389 13.667751  2.669795
Ni  2.657151 10.023306  4.517198
Ni  6.341467 11.792298  6.273130
Ni  9.965101  9.962451  4.481186
Ni  8.148444 11.795762  4.431900
Al 10.042137 11.773000  2.725209
Ni  9.938602 11.818064  6.273062
Ni 11.808859  8.230097  8.122789
Ni 11.812177 11.766010  4.503942
Al  8.164449 11.711633  0.798262
Ni  0.805445 13.542472  6.305600
Ni  0.824837  0.909801  4.485283
Ni  2.628468 13.509944  4.462479
Ni  4.483579 13.527087  6.229599
Ni  2.612196 11.786510  2.709502
Ni  4.492924 13.549840  2.676256
Ni  6.321841  0.849353  6.257117
Ni  9.963933 13.615980  4.458899
Al  4.495092  8.340975  4.566867
Ni  6.350997 13.564026  4.409230
Ni  9.946793  0.863217  6.279851
Ni 11.794321 13.543785  6.320435
Ni 11.821370  0.900850  4.522523
Ni  8.182879 13.596207  2.576285
Al  2.553351  8.108048  2.725984
Ni  0.897254  4.526962  8.113448
Ni  2.691689  4.544176  9.921691
Ni  4.501941  2.697741  9.902359
Ni  4.557109  4.511355  8.071359
Ni  6.341132  4.493643  9.892769
Ni  8.158187  2.709988  9.948947
Al 10.107794  4.480596  2.690703
Ni  6.275250  2.617100  8.105994
Al  6.431202  8.158341  2.647865
Ni 11.837159  2.673952  9.934460
Ni 11.786837  4.518339  8.104327
Ni  9.996770  2.684520  8.105595
Al  4.497278  4.579767  1.096206
Ni  0.922590  8.146756  8.113755
Ni  2.741266  8.145102  9.849147
Ni  4.542188  6.361356  9.885122
Ni  6.390179  8.215885  9.959342
Ni  6.292769  6.341242  8.062680
Ni  8.114398  8.156830  8.066678
Ni  8.067969  6.315589  6.269037
Ni  9.910385  8.083609  9.918628
Ni 13.576710  4.536055  9.917332
Al  8.234904  0.985985 11.895227
Ni 11.770861  6.360462  9.888299
Ni  0.901382  9.964904  9.931380
Ni  0.876420 11.774872  8.154555
Ni  2.719868 11.807569  9.906378
Ni  4.582213 10.034436  9.936529
Al  0.881697 13.550076 13.445733
Ni  2.729558 10.003076  8.139508
Ni  6.353205 13.598009  8.124100
Al  6.325243  9.971288 11.786727
Ni  6.393088 10.064393  8.156507
Ni  9.945007 11.812902  9.976927
Al  4.462406  9.945562 13.578281
Ni 11.796163 11.784832  8.158736
Ni  8.156886 11.837543  8.127633
Ni  0.869714 13.610545  9.945162
Ni  0.884556  0.944641  8.149090
Ni  2.702591  0.941819  9.887340
Ni  4.523341 13.605763  9.954755
Al 10.064594  8.075867 13.666566
Ni  2.676719 13.583935  8.114026
Al  8.163234  8.041925 11.846371
Ni  8.213655 13.649894  9.987150
Ni  8.149366  0.906263  8.103713
Al  4.469713  6.434640 13.506624
Ni  9.970703  0.939267  9.977157
Al  1.039276  8.183796 11.715400
Ni 11.796690  0.854149  8.143456
Ni  0.918389  2.710292 13.553325
Al 10.117798  4.548099 13.577899
Ni  2.801062  4.557786 13.604738
Ni  2.715506  2.718809  0.900430
Ni  4.524344  4.543604 11.718150
Ni  2.701216  2.741422 11.727327
Al  9.967224  8.187563  2.632130
Al  8.042629  6.366192  9.823977
Al  8.003669  4.475075 11.797797
Ni  6.300195  2.692013 11.748596
Al  4.470180  2.685693 13.511560
Ni 11.862138  2.728919 13.552762
Al  0.939913  4.559101 11.907342
Ni 10.006919  2.769087 11.784348
Al  9.986597 13.598618  8.119710
Ni  0.918883  6.364400 13.571431
Al 11.737219 13.559865 10.056713
Ni  2.665556  8.198392 13.608559
Al  8.096703 13.519334  6.265275
Ni  4.493635  8.184434 11.714004
Ni  2.703546  6.353220 11.703900
Ni  6.304052  8.137354 13.570013
Al  6.369098  0.903158  9.972005
Al  4.533315  0.797077  8.058318
Ni  6.306692  6.350700 11.724266
Ni  8.144920  6.251922 13.574231
Ni 11.833299  6.342295 13.543216
Ni 11.764602  8.139326 11.740518
Ni  9.940904  6.260152 11.717202
Ni  0.814300  9.973217 13.498507
Ni  0.886547 11.769372 11.680949
Ni  2.679675 11.773114 13.523663
Al 11.626857  9.970059  9.948488
Ni  4.543426 11.779297 11.730842
Ni  2.725227  9.994524 11.723866
Ni  6.315907 11.751933 13.555106
Ni  8.166488  9.894504 13.537747
Ni  8.154051 11.761859 11.788777
Al  6.407100 11.957175  9.988584
Ni  9.981778 11.749557 13.567372
Ni 11.811003  9.942857 13.543495
Ni 11.793345 11.743603 11.778407
Ni  9.949790  9.901191 11.781977
Al  8.280912  9.970269  9.854545
Al  4.541233 11.833618  8.123783
Ni  0.858844  0.934685 11.721925
Ni  2.681530  0.896780 13.527192
Ni  4.484787 13.580200 13.520485
Ni  4.511153  0.926372 11.725075
Ni  2.695534 13.577018 11.721818
Ni  6.322861  0.942519 13.569882
Ni  8.145579 13.591809 13.622084
Al 10.056442  6.407968  7.969188
Ni  6.374260 13.630721 11.801178
Ni 10.004248  0.964377 13.612010
Ni 11.829735 13.566415 13.541805
Ni 11.804668  0.916066 11.784771
Ni  9.975609 13.597349 11.825397
Ni  0.889511  2.700311  2.681524
Ni  0.929906  4.515282  0.882055
Ni  2.667152  4.553072  2.754981
Ni  4.465619  2.692320  2.703570
Ni  6.189927  4.561613 13.596375
Ni  2.658335  0.876691  2.696319
Ni  6.335282  4.585131  2.773740
Ni  8.188621  2.736703  2.667111
Ni  8.141365  2.831851 13.592107
Ni  6.257193  2.756354  0.905995
Ni  9.996182  6.269046  0.943483
Ni 11.871690  2.716983  2.715115
Ni 11.868860  4.539290  0.909203
Ni 10.027922  2.779301  0.894311
Al  2.768784  6.276644  8.038386
Ni  0.851021  6.318890  2.745154
Ni  0.750547  8.145787  0.912838
Al  4.632030  8.295486  8.135940
Ni  4.453443  9.924516  2.661513
Al  0.846851  6.322195  9.847839
Al 10.079972  4.425820  9.938472
Ni  2.699134  6.361659  0.954068
Ni  6.360862  9.984620  4.439668
Ni  8.204214  6.287102  2.810268
Ni  8.176617  8.096751  0.871596
Ni  6.278389  6.365051  0.939164
Al  8.037790  4.368027  7.991501
Ni 11.799972  4.523177  4.555032
Ni 11.823526  8.138500  0.920748
Ni 11.784613  6.362809  2.766384
Ni  0.810484  9.970651  2.711461
Ni  0.863379 11.874620  0.878528
Al  2.734005  2.826071  8.071124
Al  0.886471  2.740176  9.956133
Al  8.097452  0.963238  4.407488
Ni  4.471728 11.718366  0.897999
Ni  4.457639  8.169020  0.938665
Ni  6.363527 11.748453  2.606811
Ni  8.194541  9.983028  2.650735
Al 11.669152 10.020469  6.321972
Ni  6.322723  9.941273  0.862643
Al  8.155278 10.020695  6.300066
Ni 11.812712  9.969027  2.704535
Ni 11.811260 11.769252  0.884796
Ni 10.015687  9.969216  0.882791
Al  4.562986 11.754436  4.402623
Ni  0.883034  0.886632  0.838669
Al  2.606344 11.798479  6.358717
Al  0.749664 11.710869  4.512060
Ni  4.500995  0.935296  0.888438
Al  8.054445  4.430759  4.552008
Al  8.011262  4.543912  0.926750
Ni  6.349342  0.901234  2.613806
Al 10.044551  6.379991  4.660520
Al  4.713867  6.245797  6.125268
Ni 10.015828 13.569901  0.882988
Ni 11.834709 13.561986  2.700354
Ni 11.842578  0.915364  0.872593
%ENDBLOCK POSITIONS_ABS

FIX_ALL_CELL: TRUE
KPOINT_MP_GRID: 1 1 1
