#######################################################
#CASTEP cell file: /home/u2093113/Documents/kART/barriers/CASTEP/castep.cell
#Created using the Atomic Simulation Environment (ASE)#
#######################################################

%BLOCK LATTICE_CART
14.464828  0.000000  0.000000
 0.000000 14.464828  0.000000
 0.000000  0.000000 14.464828
%ENDBLOCK LATTICE_CART

%BLOCK POSITIONS_ABS
Ni  8.217267  6.242740  2.717623
Ni 10.041338  4.452748  2.728334
Ni 10.033573  6.269873  0.927772
Al  8.255153  4.446662  0.932508
Ni 11.824160  6.272281  2.735147
Ni 13.629949  4.474723  2.726559
Ni 13.626251  6.278901  0.915672
Al 11.835794  4.472645  0.914387
Ni  8.165958  9.950055  2.770786
Ni 10.024630  8.084851  2.727835
Ni 10.031967  9.880705  0.932010
Al  8.243388  8.089690  0.952331
Ni 11.840536  9.879930  2.727807
Ni 13.624934  8.076334  2.729394
Ni 13.633347  9.875999  0.913986
Al 11.826339  8.074819  0.920739
Ni  8.234435 13.490103  2.691056
Ni 10.065806 11.701070  2.711613
Ni 10.074375 13.513188  0.899355
Al  8.321852 11.711205  0.872839
Ni 11.863921 13.504074  2.713475
Ni 13.636389 11.685923  2.721488
Ni 13.644563 13.497550  0.907576
Al 11.848098 11.684661  0.908177
Ni  8.230777  2.639684  2.715597
Ni 10.071761  0.843735  2.703856
Ni 10.050818  2.656230  0.910218
Al  8.277512  0.845377  0.918033
Ni 11.849734  2.661397  2.720307
Ni 13.643262  0.851468  2.719132
Ni 13.640870  2.669513  0.910829
Al 11.860656  0.855536  0.903139
Ni  8.129473  6.249331  6.382957
Ni 10.006452  4.447207  6.335979
Ni 10.009860  6.246295  4.550408
Al  8.239307  4.425641  4.522980
Ni 11.813759  6.272643  6.346063
Ni 13.628926  4.474743  6.347604
Ni 13.622360  6.277232  4.539439
Al 11.829471  4.464673  4.541033
Ni  8.155552  9.960722  6.271286
Ni  9.990661  8.084073  6.337488
Ni 10.034089  9.893040  4.531420
Al  8.293468  8.026169  4.511470
Ni 11.827251  9.878798  6.344789
Ni 13.622939  8.077712  6.345723
Ni 13.629287  9.878793  4.537589
Al 11.813313  8.072785  4.541598
Ni  8.218178 13.524387  6.370374
Ni 10.051273 11.708409  6.351670
Ni 10.088529 13.523217  4.529624
Al  8.351075 11.779891  4.529558
Ni 11.862144 13.502579  6.350941
Ni 13.635163 11.684823  6.348173
Ni 13.640190 13.499515  4.533880
Al 11.849431 11.692288  4.535487
Ni  8.229926  2.571711  6.339565
Ni 10.059272  0.833980  6.349454
Ni 10.052565  2.643458  4.529909
Al  8.308098  0.826232  4.474959
Ni 11.842718  2.660145  6.345091
Ni 13.643951  0.850729  6.349028
Ni 13.636698  2.664744  4.535452
Al 11.860674  0.852986  4.532705
Ni  8.152724  6.274704  9.883555
Ni 10.018486  4.478248  9.954670
Ni  9.994388  6.273177  8.134143
Al  8.249049  4.431062  8.131162
Ni 11.811487  6.282887  9.950763
Ni 13.631065  4.482979  9.956949
Ni 13.624798  6.281141  8.150984
Al 11.818859  4.477437  8.148808
Ni  8.207802  9.901644  9.974731
Ni  9.988251  8.076096  9.949200
Ni 10.006431  9.878872  8.136377
Al  8.206574  8.096196  8.122113
Ni 11.822986  9.865751  9.954633
Ni 13.626350  8.076614  9.954583
Ni 13.629475  9.875304  8.152866
Al 11.804598  8.075698  8.145025
Ni  8.252322 13.491827  9.991045
Ni 10.056737 11.682230  9.979956
Ni 10.081730 13.497931  8.170245
Al  8.312306 11.707879  8.190556
Ni 11.862469 13.492485  9.971806
Ni 13.638098 11.678007  9.960307
Ni 13.641955 13.496235  8.158753
Al 11.840524 11.678158  8.158483
Ni  8.263788  2.636582  9.975630
Ni 10.090057  0.843364  9.988780
Ni 10.060110  2.657619  8.155187
Al  8.348180  0.830736  8.234544
Ni 11.845209  2.676200  9.965921
Ni 13.642857  0.852400  9.962686
Ni 13.634178  2.668674  8.155213
Al 11.855724  0.851406  8.160670
Ni  8.216183  6.274762 13.613632
Ni 10.027863  4.469302 13.580341
Ni  9.987047  6.283560 11.754379
Al  8.268572  4.464274 11.774183
Ni 11.819548  6.278751 13.567671
Ni 13.633915  4.481263 13.566782
Ni 13.627772  6.281859 11.760199
Al 11.819448  4.487272 11.763058
Ni  8.218794  9.898235 13.587146
Ni 10.016358  8.077670 13.586610
Ni 10.026827  9.872752 11.770869
Al  8.229583  8.085120 11.786988
Ni 11.833233  9.869174 13.574133
Ni 13.629061  8.075279 13.569764
Ni 13.631716  9.870421 11.762826
Al 11.811427  8.069846 11.760617
Ni  8.239180 13.513996 13.561403
Ni 10.063098 11.689216 13.562048
Ni 10.067552 13.496242 11.775941
Al  8.255153 11.694870 11.781278
Ni 11.861064 13.501759 13.566654
Ni 13.638901 11.680709 13.569276
Ni 13.649628 13.495726 11.765829
Al 11.849934 11.675462 11.767708
Ni  8.226696  2.638548 13.575183
Ni 10.057839  0.851845 13.567528
Ni 10.051584  2.664859 11.776581
Al  8.281923  0.838170 11.761424
Ni 11.848631  2.671156 13.569760
Ni 13.650343  0.853240 13.566989
Ni 13.641402  2.675033 11.763593
Al 11.861639  0.854720 11.774011
Ni  1.031609  6.231607  2.666919
Ni  2.773158  4.425520  2.677169
Al  4.754254  2.639362 13.516184
Ni  0.933725  4.421610  0.854717
Ni  4.517264  6.250739  2.681859
Ni  6.406702  4.423128  2.726475
Ni  4.587097  8.070074  0.900405
Ni  4.630650  4.401583  0.895517
Al  0.814485  0.836475 11.688230
Ni  0.948978  8.109783  0.823514
Ni  0.946582  9.941968  2.706675
Al  2.791505  2.752596 11.645610
Ni  4.555749  9.904727  2.660518
Ni  6.398799  8.074597  2.707498
Ni  6.431271  9.934009  0.957657
Ni  2.749240  9.931662  0.886250
Ni  0.954359 13.516669  2.693360
Ni  4.577833 11.760748  0.908213
Ni  2.746622 13.547627  0.841749
Al  4.650115 13.531320 13.592155
Ni  4.537357 13.582048  2.682435
Ni  4.603740 11.733836  4.485799
Ni  6.434627 13.539309  0.903837
Al  2.787169 13.445794 11.645005
Ni  0.948036  2.620185  2.670269
Ni  4.565327  0.894992  0.867920
Ni  0.965082  0.847278  0.814850
Ni  4.551836  2.602140  2.693340
Ni  6.412058  0.825601  2.718244
Ni  6.438271  2.630658  0.924348
Ni  2.791387  0.884936 13.432660
Ni  0.946410  6.229040  6.338301
Ni  2.815848  4.441730  6.355511
Al  4.608266  9.980368 13.658718
Ni  0.925332  4.401269  4.518083
Al  1.081351  9.945753 13.446453
Ni  6.475160  4.383924  6.316917
Ni  6.421024  6.256001  4.481444
Ni  4.628701  4.434522  4.515486
Ni  1.039565  9.888650  6.371766
Ni  2.806643  7.989695  6.282585
Ni  2.783726  9.879216  4.506951
Ni  0.968180  8.068812  4.510137
Ni  4.577070  9.837998  6.342411
Ni  6.448271  8.102187  6.282790
Al  2.873829  2.728745  8.284202
Ni  4.549025  7.995616  4.478923
Ni  0.968667  0.878103  4.540447
Al  0.973940 11.650714  8.186110
Ni  1.017400 11.769988  4.584030
Ni  4.557071 13.566516  6.367926
Ni  6.423322 13.544815  4.545379
Ni  2.766549 13.562492  4.536005
Al  4.717039  9.908035  9.965721
Al  2.811678  9.654481  8.153454
Ni  2.816626  0.925143  6.386125
Ni  2.764502  2.663480  4.506839
Ni  4.599854  2.646088  6.360842
Ni  6.419038  2.583626  4.531553
Al  4.878046  6.201502  9.847662
Al  4.752281  8.028318 11.861133
Al  2.780567  6.261047  8.055312
Al  0.923182  6.297861  9.959680
Ni  0.944956  4.476359  8.171260
Ni  6.517518  4.416214  9.937325
Ni  4.709814  4.490696  8.125026
Al  4.593101  0.873396  4.517688
Al  6.370539  0.825359  6.437730
Al  2.688481  0.794089  2.684458
Ni  0.970749  9.813665  9.965014
Al  0.991116  2.678612  6.390826
Ni  0.936082  8.040874  8.164690
Ni  2.897327  7.923346 10.010006
Ni  6.463252  8.104618  9.959605
Ni  6.437686  9.917352  8.109956
Ni  4.712050  7.998576  8.143302
Al  6.270153 11.784024  6.361583
Ni  0.942096 13.477750  9.930932
Ni  2.798123 11.608103  9.903533
Ni  2.772565 13.496054  8.178622
Al  1.026175 13.670738  6.398911
Ni  4.604784 13.477708  9.961423
Ni  6.449229 11.709494  9.937309
Ni  6.427473 13.502867  8.177338
Ni  4.571870 11.658798  8.155480
Al  2.914276 11.694885  6.251483
Ni  0.948728  2.694851  9.936157
Ni  2.768588  0.857318  9.999481
Al  6.250946  9.804043  4.488701
Ni  0.991338  0.902325  8.191416
Ni  4.641955  2.690434  9.984784
Ni  6.455663  0.832056  9.946604
Ni  6.447480  2.618138  8.166433
Ni  4.601130  0.862298  8.216013
Ni  0.961100  6.240696 13.525038
Ni  2.819471  4.381166 13.528814
Ni  2.829090  4.602935  9.941470
Ni  0.924658  4.469848 11.697580
Ni  4.639700  6.240802 13.589408
Ni  6.478477  4.451126 13.589927
Ni  6.481404  6.256575 11.783989
Ni  4.690071  4.483665 11.754216
Al  4.839029  6.231909  6.353975
Ni  0.972250 11.730083  0.847645
Ni  2.812848  8.077918 13.565541
Ni  2.892151  9.837243 11.724746
Ni  0.961291  8.061277 11.751801
Al  2.726734  6.150124  4.534883
Ni  6.403218  6.246402  0.953505
Ni  6.418258  9.904648 11.808549
Ni  6.442608  8.099832 13.651221
Al  2.706458  2.695397  0.834527
Ni  0.986219 13.488673 13.460374
Ni  2.818084 11.738611 13.520469
Al  6.282897 11.816861  2.683391
Ni  0.965282 11.674543 11.688483
Al  2.773232 11.738905  2.717798
Ni  6.437287 11.725570 13.608349
Ni  6.434450 13.507944 11.760960
Ni  4.646982 11.708524 11.765171
Al  2.771310  6.164192  0.806110
Al  2.799391  6.181226 11.882411
Ni  0.961037  2.649303 13.462001
Al  2.732568  8.175024  2.669147
Ni  4.633543  0.836945 11.736659
Ni  6.456352  0.832399 13.566834
Ni  6.466790  2.639023 11.744784
%ENDBLOCK POSITIONS_ABS

FIX_ALL_CELL: TRUE
KPOINT_MP_GRID: 1 1 1
