#######################################################
#CASTEP cell file: /home/u2093113/Documents/kART/barriers/CASTEP/castep.cell
#Created using the Atomic Simulation Environment (ASE)#
#######################################################

%BLOCK LATTICE_CART
14.464828  0.000000  0.000000
 0.000000 14.464828  0.000000
 0.000000  0.000000 14.464828
%ENDBLOCK LATTICE_CART

%BLOCK POSITIONS_ABS
Ni  8.211491  0.899873  4.517334
Ni 10.034273 13.557803  4.524709
Ni 10.031272  0.908417  2.726963
Al  8.246698 13.553907  2.738450
Ni 11.823729  0.912585  4.526752
Ni 13.626304 13.571366  4.521398
Ni 13.627321  0.910534  2.712756
Al 11.830909 13.567806  2.715545
Ni  8.187358  4.599312  4.542439
Ni 10.015247  2.729778  4.523816
Ni 10.040868  4.520116  2.717796
Al  8.248473  2.729954  2.738470
Ni 11.842224  4.515129  4.519366
Ni 13.629542  2.712232  4.521197
Ni 13.634607  4.513142  2.707547
Al 11.827985  2.711491  2.716759
Ni  8.225467  8.094581  4.500199
Ni 10.076062  6.336642  4.503317
Ni 10.067918  8.145329  2.697628
Al  8.320399  6.347151  2.664910
Ni 11.861681  8.139382  4.510398
Ni 13.635035  6.322025  4.515871
Ni 13.642983  8.134243  2.702840
Al 11.850520  6.323451  2.699986
Ni  8.221835 11.738996  4.513691
Ni 10.059077  9.934021  4.504366
Ni 10.038748 11.750112  2.713200
Al  8.263803  9.929528  2.727185
Ni 11.841062 11.756578  4.516995
Ni 13.640336  9.949714  4.515646
Ni 13.637170 11.764711  2.708932
Al 11.853000  9.952458  2.702346
Ni  6.499500  0.891438  9.910964
Ni 10.008350 13.551055  8.114361
Ni 10.005640  0.914895  6.320216
Al  8.232151 13.537796  6.303126
Ni 11.808366  0.911402  8.130009
Ni 13.621052 13.572863  8.138047
Ni 13.622918  0.911032  6.331065
Al 11.823078 13.567387  6.328500
Ni  8.177851  4.590023  8.097450
Ni  9.993732  2.727040  8.119326
Ni 10.040177  4.524970  6.325445
Al  8.213604  2.756562  6.295115
Ni 11.831016  4.513145  8.139694
Ni 13.623338  2.711215  8.139453
Ni 13.630802  4.515844  6.331111
Al 11.820186  2.714109  6.329568
Ni  8.211967  8.134591  8.158611
Ni 10.060783  6.341199  8.153033
Ni 10.079260  8.144915  6.326391
Al  8.355001  6.364948  6.331004
Ni 11.858917  8.138607  8.144715
Ni 13.633401  6.320663  8.143287
Ni 13.638609  8.133636  6.328902
Al 11.847381  6.325527  6.330688
Ni  8.221502 11.683940  8.129827
Ni 10.045651  9.928913  8.138777
Ni 10.041655 11.740252  6.321185
Al  8.295636  9.911765  6.271025
Ni 11.835284 11.756443  8.133143
Ni 13.640097  9.949910  8.141577
Ni 13.631290 11.762243  6.328532
Al 11.852070  9.948069  6.326968
Ni  8.215167  0.908690 11.749795
Ni 10.023325 13.570246 11.755165
Ni  9.998068  0.909846  9.927160
Al  8.272242 13.534477  9.922719
Ni 11.812421  0.911007 11.749488
Ni 13.625345 13.577471 11.750991
Ni 13.618748  0.911791  9.943280
Al 11.812632 13.575630  9.937924
Ni  8.208854  4.521287 11.772976
Ni 10.007039  2.711050 11.755269
Ni 10.024018  4.515851  9.941578
Al  8.240544  2.734741  9.924637
Ni 11.830381  4.503556 11.754954
Ni 13.624658  2.707709 11.750472
Ni 13.628312  4.509640  9.948742
Al 11.807132  2.707564  9.939228
Ni  8.245181  8.124553 11.779907
Ni 10.055795  6.317317 11.776660
Ni 10.076081  8.131467  9.963704
Al  8.311124  6.337115  9.988701
Ni 11.857656  8.131342 11.766712
Ni 13.638476  6.316508 11.756399
Ni 13.639888  8.133546  9.953126
Al 11.843996  6.316791  9.956858
Ni  8.252248 11.742811 11.764860
Ni 10.078377  9.944615 11.780609
Ni 10.056615 11.753376  9.944128
Al  8.338946  9.925268 10.019640
Ni 11.840012 11.771079 11.760685
Ni 13.639012  9.952323 11.756343
Ni 13.626511 11.766825  9.946781
Al 11.848409  9.949747  9.952019
Ni  8.213996  0.908413  0.949322
Ni 10.023161 13.562308  0.922472
Ni 10.009712  0.911040 13.572813
Al  8.264829 13.558048 13.582555
Ni 11.824202  0.907785  0.908423
Ni 13.632123 13.574175  0.901955
Ni 13.625724  0.910073 13.558251
Al 11.820504 13.576192 13.565917
Ni  8.224260  4.534316  0.911112
Ni 10.023459  2.712634  0.917874
Ni 10.032804  4.508587 13.567077
Al  8.233470  2.716796 13.591097
Ni 11.837896  4.507740  0.902605
Ni 13.630540  2.708635  0.902445
Ni 13.634256  4.507177 13.558928
Al 11.821064  2.703878 13.562196
Ni  8.231518  8.145257  0.894098
Ni 10.062932  6.327845  0.889051
Ni 10.059815  8.134819 13.569737
Al  8.255374  6.327718 13.571444
Ni 11.856508  8.140361  0.897011
Ni 13.639389  6.319562  0.898114
Ni 13.647314  8.134443 13.560618
Al 11.850053  6.316064 13.562741
Ni  8.215576 11.732831  0.918823
Ni 10.045485  9.949123  0.903705
Ni 10.041526 11.760087 13.576244
Al  8.271193  9.937566 13.556141
Ni 11.841556 11.764851  0.906377
Ni 13.646981  9.952266  0.898974
Ni 13.637657 11.770188 13.560352
Al 11.853524  9.954881 13.570120
Ni  1.005747  0.859333  4.444874
Ni  2.771268 13.529915  4.468352
Al  4.756250 11.729263  0.866696
Ni  0.927697 13.507966  2.649780
Ni  4.504664  0.955991  4.526949
Ni  6.398899 13.538544  4.525512
Ni  4.578950  2.709985  2.696993
Ni  4.626882 13.522105  2.712511
Al  0.817514  9.927790 13.482230
Ni  0.919758  2.749538  2.600934
Ni  0.916813  4.586689  4.491314
Al  2.793773 11.837195 13.449240
Ni  4.550026  4.537855  4.429712
Ni  6.424826  2.772741  4.487263
Ni  6.438850  4.578888  2.724003
Ni  2.728703  4.578954  2.666423
Ni  0.949100  8.142424  4.490927
Ni  4.588912  6.385991  2.713411
Ni  2.752000  8.167057  2.644865
Al  4.655522  8.154854  0.928680
Ni  4.555567  8.171603  4.495778
Ni  4.608858  6.281265  6.282862
Ni  6.436431  8.132893  2.728941
Al  2.792318  8.077863 13.438107
Ni  0.950257 11.705518  4.465164
Ni  4.574900  9.968804  2.681928
Ni  0.966329  9.933081  2.614405
Ni  4.550114 11.700225  4.490597
Ni  6.410309  9.912367  4.524981
Ni  6.430963 11.732065  2.732046
Ni  2.798644  9.971882  0.774164
Ni  0.939347  0.866363  8.128270
Ni  2.800480 13.535341  8.143941
Al  4.599528  4.619727  0.991508
Ni  0.915939 13.490592  6.306259
Al  1.065771  4.588382  0.770105
Ni  6.478054 13.503078  8.100088
Ni  6.405656  0.921345  6.271207
Ni  4.620097 13.539278  6.300127
Ni  1.028416  4.513340  8.163040
Ni  2.843752  2.622615  8.028308
Ni  2.761607  4.497228  6.286726
Ni  0.945394  2.702263  6.297417
Ni  4.591702  4.475389  8.147583
Ni  8.197768  0.901999  8.094744
Al  2.871110 11.814367 10.072117
Ni  6.454934  2.765555  8.082843
Ni  0.972516  9.963559  6.332715
Al  0.968147  6.280654  9.977697
Ni  1.008721  6.397452  6.378239
Ni  4.571489  8.163902  8.150948
Ni  6.419407  8.135096  6.340237
Ni  2.777205  8.172280  6.331092
Al  4.708315  4.532761 11.759299
Al  2.793945  4.281619  9.946991
Ni  2.827943 10.009794  8.171348
Ni  2.765003 11.754256  6.296417
Ni  4.603031 11.755012  8.149983
Ni  6.414498 11.690290  6.324505
Al  4.789859  0.825962 11.710231
Al  4.738644  2.670064 13.669637
Al  2.759616  0.900443  9.847066
Al  0.915377  0.926187 11.758587
Ni  0.938614 13.567085  9.961879
Ni  6.510853 13.529054 11.743271
Ni  4.672116 13.578539  9.926487
Al  4.600350  9.958099  6.312161
Al  6.369378  9.911343  8.225525
Al  2.699965  9.869177  4.483541
Ni  0.960376  4.446288 11.761643
Al  0.990358 11.763906  8.178601
Ni  0.931478  2.671790  9.949090
Ni  2.873782  2.561585 11.814347
Ni  6.452791  2.717474 11.763212
Ni  6.442423  4.542179  9.926060
Ni  4.668410  2.641393  9.940181
Al  6.280086  6.323910  8.095351
Ni  0.945183  8.109308 11.720106
Ni  2.796932  6.237629 11.692059
Ni  2.778547  8.119573  9.963115
Al  1.026548  8.297088  8.189227
Ni  4.607725  8.104719 11.746433
Ni  6.448307  6.336721 11.736347
Ni  6.426206  8.104840  9.948871
Ni  4.579851  6.280004  9.940727
Al  2.908690  6.312886  8.042797
Ni  0.948905 11.783238 11.730317
Ni  2.775984  9.949485 11.787246
Al  4.770187  2.889324  6.262738
Ni  0.994719  9.992646  9.980467
Ni  4.643672 11.788563 11.774716
Ni  6.451910  9.925654 11.728315
Ni  6.444559 11.728661  9.953921
Ni  4.607926  9.949913  9.995237
Ni  0.947364  0.866019  0.861900
Ni  2.817033 13.469621  0.871522
Ni  2.808610 13.684833 11.742280
Ni  0.918845 13.555405 13.500227
Ni  4.630601  0.875452  0.922082
Ni  6.471149 13.550880  0.933968
Ni  6.470006  0.889062 13.592546
Ni  4.682473 13.566401 13.563363
Al  4.775282  0.838466  8.117232
Ni  0.956290  6.370684  2.636799
Ni  2.798525  2.714499  0.902099
Ni  2.880959  4.475042 13.523899
Ni  0.948674  2.693671 13.555135
Al  2.683756  0.779995  6.308372
Ni  6.393348  0.894231  2.759265
Ni  6.415624  4.532606 13.602928
Ni  6.438395  2.734039  0.985613
Al  2.710850 11.783374  2.641254
Ni  0.984377  8.121453  0.789600
Ni  2.815170  6.376852  0.850033
Al  6.294339  6.335556  4.550964
Ni  0.961225  6.312984 13.478779
Al  2.764212  6.364150  4.510860
Ni  6.437194  6.359474  0.925033
Ni  6.431260  8.142750 13.551734
Ni  4.643050  6.338371 13.555250
Al  2.766116  0.799019  2.603379
Al  2.779372  0.809099 13.694723
Ni  0.962134 11.733735  0.797924
Al  2.669972  2.820479  4.421568
Ni  4.636043  9.932270 13.533242
Ni  6.452489  9.918684  0.913631
Ni  6.462329 11.731660 13.546028
%ENDBLOCK POSITIONS_ABS

FIX_ALL_CELL: TRUE
KPOINT_MP_GRID: 1 1 1
