#######################################################
#CASTEP cell file: /home/u2093113/Documents/kART/CASTEP/castep.cell
#Created using the Atomic Simulation Environment (ASE)#
#######################################################

%BLOCK LATTICE_CART
14.464828  0.000000  0.000000
 0.000000 14.464828  0.000000
 0.000000  0.000000 14.464828
%ENDBLOCK LATTICE_CART

%BLOCK POSITIONS_ABS
Al 13.584373  2.733466  4.508207
Al 13.599294  6.353334  4.498269
Al 13.553193  9.851046  4.429959
Al 13.428210 13.642020  4.596496
Al 13.506338  2.734329  8.047604
Al 13.503450  6.363316  8.067002
Al 13.740664  9.939480  8.179497
Al 13.639909 13.556812  8.045649
Al 13.461099  2.612316 11.830579
Al 13.403299  6.354004 11.825335
Al 13.555121 10.071345 11.784379
Al 13.581307 13.580639 11.724638
Al 13.619533  2.683550  0.878040
Al 13.600300  6.330525  0.872208
Al 13.592426 10.016063  0.888830
Al 13.410525 13.584209  0.895350
Al 10.114532  0.950907  2.679219
Al  6.179587 13.577355  0.872572
Al  8.146446  1.004101  0.816848
Al  2.531907  0.816835  6.217322
Al  2.941633 13.571345  0.899286
Al  2.569747 10.071735  0.903844
Al  4.587587  0.887890  4.423510
Al  0.983008 13.673224  2.724661
Al 10.033746 11.782622  2.772090
Al  8.155091 11.683294  0.805264
Al  4.519370  8.327028  4.579989
Al  2.607560  8.080503  2.692820
Al 10.109346  4.432119  2.676989
Al  6.451024  8.095077  2.675241
Al  4.514783  4.593955  1.091162
Al  8.233111  0.960959 11.865120
Al  1.020145 13.579354 13.500270
Al  6.318210  9.987156 11.781722
Al  4.502333  9.949919 13.604381
Al 10.078786  8.129881 13.666733
Al  8.171207  8.056846 11.856971
Al  4.517530  6.431991 13.493032
Al  1.089038  8.234361 11.843194
Al 10.086172  4.526678 13.552006
Al  9.980080  8.211264  2.623741
Al  7.990436  6.398919  9.836793
Al  7.972449  4.461796 11.791929
Al  4.532169  2.666600 13.506147
Al  1.101668  4.520772 11.952523
Al  9.903043 13.589977  8.101889
Al 11.662729 13.583247 10.002123
Al  8.023599 13.524415  6.262400
Al  6.367337  0.901787  9.957212
Al  4.531986  0.802230  8.073583
Al 11.556220  9.979302  9.927464
Al  6.408580 11.979340  9.974237
Al  8.279780  9.955829  9.830312
Al  4.560828 11.826296  8.159721
Al 10.051632  6.463853  7.957059
Al  2.792734  6.230772  8.043089
Al  4.649818  8.303191  8.197107
Al  0.994176  6.321897  9.926886
Al 10.136606  4.403317  9.935440
Al  8.015635  4.379489  7.967272
Al  2.750228  2.877552  8.064427
Al  0.969799  2.673576  9.967091
Al  8.073689  1.001224  4.431501
Al 11.637273  9.964391  6.324338
Al  8.116577 10.001011  6.274987
Al  4.611010 11.728102  4.396534
Al  2.664198 11.778962  6.387301
Al  0.942610 11.695382  4.476991
Al  8.013132  4.473379  4.591074
Al  7.994812  4.551741  0.918052
Al  9.991743  6.376714  4.662010
Al  4.760466  6.188356  6.097911
Ni 13.587052  4.548649  6.301269
Ni 13.588934  8.222556  6.339598
Ni 13.563016 11.646261  6.314628
Ni 13.583920  0.940304  6.336974
Ni 11.807701  4.504326 11.741034
Ni 13.646654  8.119216 10.025669
Ni 13.554432 11.784654  9.934541
Ni 13.564188  0.879012  9.920837
Ni 13.605401  4.498398 13.519608
Ni 13.560517  8.199412 13.469428
Ni 13.573222 11.864000 13.538885
Ni 13.593670  0.829700 13.547234
Ni 13.585909  4.525829  2.702451
Ni 13.599901  8.121878  2.686342
Ni 13.588980 11.863907  2.774239
Ni 13.544467  0.872353  2.677184
Ni  0.933317  2.756314  6.296108
Ni  0.935197  4.540759  4.511694
Ni  2.741318  4.533775  6.235719
Ni  4.452916  2.615103  6.304514
Ni  4.480942  4.460846  4.442383
Ni  2.703695  2.687674  4.490791
Ni  6.268910  4.370147  6.290500
Ni  8.160106  2.646157  6.290944
Ni  6.281461  2.722732  4.454072
Ni  9.949682  4.523695  6.342976
Ni 11.721269  2.729104  6.305325
Ni  9.923158  8.202417  6.308208
Ni  9.965160  2.721920  4.514908
Ni  0.947253  6.347757  6.304720
Ni  0.945080  8.136851  4.553514
Ni  2.821068  8.124158  6.397528
Ni  4.560127  6.443279  2.850570
Ni  2.770476  6.375587  4.538711
Ni  6.298593  8.161117  6.291450
Ni  9.899541  9.984833  8.073286
Ni 11.815966  6.385285  6.283527
Ni 11.748122  8.164359  4.495265
Ni  8.172204  8.130991  4.498724
Ni  0.974582  9.925002  6.299588
Ni  4.535366 10.057624  6.350963
Ni  2.740238  9.988634  4.530383
Ni  6.331596 11.756957  6.287863
Ni  9.929932  9.964335  4.482284
Ni  8.145068 11.774260  4.440183
Ni  9.933617 11.829692  6.277118
Ni 11.807927  8.251996  8.153863
Ni 11.778602 11.744060  4.544251
Ni  0.872698 13.498319  6.246311
Ni  0.862274  0.922048  4.459511
Ni  2.755792 13.501321  4.504178
Ni  4.558735 13.559741  6.272099
Ni  2.702077 11.777311  2.676674
Ni  4.550832 13.551794  2.727495
Ni  6.352829  0.920515  6.264562
Ni  9.917394 13.638728  4.510767
Ni  6.394979 13.563098  4.419067
Ni  9.940406  0.889594  6.303162
Ni 11.737622 13.554974  6.327961
Ni 11.749845  0.943331  4.559048
Ni  8.152416 13.604392  2.598734
Ni  0.889961  4.544227  8.116807
Ni  2.732007  4.528508  9.958314
Ni  4.536882  2.685342  9.907206
Ni  4.577983  4.518632  8.101943
Ni  6.341223  4.518689  9.885739
Ni  8.176314  2.749071  9.910651
Ni  6.279243  2.616913  8.115617
Ni 11.818680  2.660379  9.922920
Ni 11.776249  4.535230  8.093210
Ni  9.965109  2.695899  8.107019
Ni  0.972936  8.079432  8.148237
Ni  2.760666  8.150889  9.910661
Ni  4.553618  6.359106  9.898101
Ni  6.399572  8.243092 10.008466
Ni  6.287031  6.347604  8.067496
Ni  8.096041  8.145240  8.069207
Ni  8.025683  6.335510  6.262219
Ni  9.892405  8.064197  9.912507
Ni 13.664932  4.517863 10.039282
Ni 11.754322  6.360266  9.925049
Ni  0.967590  9.957579  9.979218
Ni  0.914829 11.774371  8.178402
Ni  2.708469 11.785021  9.946237
Ni  4.554459 10.077449  9.963311
Ni  2.730359  9.975889  8.150237
Ni  6.360897 13.606337  8.122473
Ni  6.374396 10.068814  8.171806
Ni  9.911199 11.834215  9.955262
Ni 11.735803 11.778323  8.136435
Ni  8.161637 11.818354  8.113376
Ni  0.953458 13.605646  9.912726
Ni  0.932807  0.982841  8.140143
Ni  2.745229  0.949040  9.899828
Ni  4.511096 13.586882  9.954536
Ni  2.702486 13.580517  8.116784
Ni  8.180291 13.670189  9.992501
Ni  8.170384  0.927079  8.093530
Ni  9.973079  0.964598  9.926743
Ni 11.751186  0.857603  8.125054
Ni  0.959434  2.657536 13.550674
Ni  2.855977  4.530665 13.620316
Ni  2.728372  2.729392  0.900721
Ni  4.535982  4.530889 11.680603
Ni  2.771059  2.703376 11.725599
Ni  6.312673  2.686261 11.706234
Ni 11.757371  2.690465 13.582912
Ni  9.966476  2.760406 11.779289
Ni  0.942869  6.372226 13.534020
Ni  2.728577  8.194876 13.620163
Ni  4.525430  8.205866 11.714322
Ni  2.758927  6.364991 11.710045
Ni  6.331434  8.156753 13.566768
Ni  6.333416  6.347813 11.714191
Ni  8.137990  6.269300 13.576056
Ni 11.762064  6.339512 13.594700
Ni 11.705267  8.190763 11.700866
Ni  9.890308  6.246002 11.669696
Ni  0.899419 10.060001 13.527190
Ni  0.946904 11.814343 11.715652
Ni  2.735903 11.794428 13.536592
Ni  4.549616 11.806671 11.765382
Ni  2.784380 10.022014 11.731326
Ni  6.318284 11.765795 13.555838
Ni  8.150040  9.900007 13.550128
Ni  8.108931 11.741817 11.735148
Ni  9.957424 11.757708 13.519184
Ni 11.756938  9.992244 13.555552
Ni 11.717885 11.766231 11.743237
Ni  9.878628  9.934241 11.790084
Ni  0.943215  0.912271 11.722075
Ni  2.730813  0.899290 13.536351
Ni  4.530862 13.590586 13.494644
Ni  4.509676  0.885658 11.729993
Ni  2.743734 13.594304 11.691090
Ni  6.321723  0.935208 13.569975
Ni  8.125917 13.555309 13.626677
Ni  6.369704 13.635373 11.815140
Ni  9.981074  0.925924 13.570715
Ni 11.709168 13.570451 13.527582
Ni 11.715680  0.880000 11.757454
Ni  9.898169 13.566933 11.800602
Ni  0.925145  2.704176  2.690188
Ni  0.951643  4.514543  0.864604
Ni  2.672960  4.539914  2.723810
Ni  4.515945  2.713659  2.696509
Ni  6.175835  4.549632 13.582844
Ni  2.725843  0.934387  2.692295
Ni  6.317423  4.590330  2.769158
Ni  8.150722  2.757081  2.683335
Ni  8.109728  2.812829 13.580743
Ni  6.290143  2.762145  0.921913
Ni  9.967708  6.251643  0.902975
Ni 11.829259  2.718676  2.695547
Ni 11.843967  4.518506  0.894226
Ni  9.970900  2.748609  0.875439
Ni  0.907764  6.309981  2.689995
Ni  0.895155  8.172616  0.842105
Ni  4.504438  9.891709  2.658581
Ni  2.710572  6.323867  0.891552
Ni  6.383501  9.945734  4.452051
Ni  8.280058  6.237410  2.786100
Ni  8.178506  8.117130  0.880359
Ni  6.319939  6.364785  0.925598
Ni 11.771149  4.538897  4.539716
Ni 11.837761  8.156715  0.917497
Ni 11.725491  6.343148  2.708650
Ni  0.900091  9.962953  2.705962
Ni  0.887926 11.949304  0.908438
Ni  4.535235 11.678833  0.907861
Ni  4.481576  8.130500  0.932545
Ni  6.385117 11.738945  2.629553
Ni  8.170892  9.971403  2.680595
Ni  6.356214  9.887763  0.899867
Ni 11.793847  9.970819  2.677980
Ni 11.750089 11.760572  0.861593
Ni  9.993856 10.003976  0.885096
Ni  0.961128  0.809836  0.879701
Ni  4.507348  0.977080  0.913258
Ni  6.333561  0.933595  2.621549
Ni  9.973785 13.562163  0.878276
Ni 11.739464 13.569853  2.718681
Ni 11.767024  0.933016  0.847188
%ENDBLOCK POSITIONS_ABS

