#######################################################
#CASTEP cell file: /home/u2093113/Documents/kART/CASTEP/castep.cell
#Created using the Atomic Simulation Environment (ASE)#
#######################################################

%BLOCK LATTICE_CART
14.464828  0.000000  0.000000
 0.000000 14.464828  0.000000
 0.000000  0.000000 14.464828
%ENDBLOCK LATTICE_CART

%BLOCK POSITIONS_ABS
Al 13.583839  2.732790  4.507534
Al 13.600131  6.353774  4.501971
Al 13.550447  9.858101  4.430008
Al 13.431698 13.642229  4.593808
Al 13.512169  2.734088  8.051475
Al 13.507439  6.363500  8.071689
Al 13.737858  9.944169  8.183851
Al 13.639890 13.560203  8.050018
Al 13.467366  2.616799 11.832271
Al 13.415297  6.354521 11.822548
Al 13.558559 10.069667 11.784379
Al 13.583993 13.583114 11.728257
Al 13.624820  2.688464  0.875782
Al 13.605530  6.332546  0.872560
Al 13.596573 10.013276  0.888215
Al 13.413479 13.585421  0.892377
Al 10.115505  0.951224  2.674558
Al  6.176450 13.579456  0.872143
Al  8.145944  1.004676  0.813783
Al  2.534294  0.814022  6.217329
Al  2.946443 13.575356  0.898485
Al  2.572994 10.068408  0.906189
Al  4.589283  0.886498  4.425179
Al  0.986595 13.674910  2.720567
Al 10.034683 11.784284  2.769123
Al  8.153585 11.685124  0.804132
Al  4.492796  8.290284  4.642429
Al  2.610586  8.082071  2.707594
Al 10.114183  4.429661  2.672836
Al  6.434508  8.137990  2.653342
Al  4.519233  4.599769  1.097932
Al  8.233842  0.965103 11.868636
Al  1.024797 13.581271 13.502890
Al  6.316833  9.986512 11.779656
Al  4.500211  9.950629 13.600220
Al 10.075264  8.126144 13.665372
Al  8.166577  8.051755 11.850644
Al  4.518026  6.435309 13.493650
Al  1.094366  8.229978 11.832333
Al 10.083010  4.533165 13.553438
Al  9.975578  8.209983  2.624015
Al  7.968265  6.400119  9.816241
Al  7.970171  4.468655 11.788599
Al  4.533347  2.673217 13.507292
Al  1.110181  4.528668 11.942647
Al  9.906194 13.588658  8.105825
Al 11.663659 13.583857 10.009299
Al  8.028974 13.525793  6.262979
Al  6.371000  0.902137  9.959959
Al  4.535015  0.801162  8.074661
Al 11.555618  9.980149  9.930881
Al  6.409996 11.981181  9.977289
Al  8.279963  9.957143  9.831804
Al  4.560689 11.830577  8.157953
Al 10.066557  6.466161  7.970569
Al  2.853766  6.233502  7.965724
Al  4.647123  8.310326  8.169714
Al  1.028672  6.322393  9.896447
Al 10.135071  4.403814  9.935556
Al  8.016839  4.378744  7.961323
Al  2.750319  2.866255  8.065475
Al  0.975031  2.676062  9.968603
Al  8.075001  1.003734  4.431495
Al 11.636958  9.967181  6.326639
Al  8.121686 10.005195  6.272070
Al  4.609942 11.735419  4.398791
Al  2.665742 11.784651  6.389136
Al  0.942344 11.700168  4.473438
Al  8.073416  4.409182  4.607335
Al  7.991800  4.558001  0.923534
Al 10.001553  6.377723  4.661810
Al  5.513389  6.230779  5.388606
Ni 13.586473  4.547644  6.303509
Ni 13.585598  8.225798  6.341171
Ni 13.555332 11.655711  6.316672
Ni 13.583762  0.938219  6.337626
Ni 11.810300  4.508033 11.742511
Ni 13.651973  8.115853 10.026732
Ni 13.554608 11.788467  9.939194
Ni 13.566696  0.880652  9.924841
Ni 13.611900  4.503271 13.517120
Ni 13.565692  8.197172 13.469731
Ni 13.576202 11.862241 13.539775
Ni 13.597210  0.834131 13.548701
Ni 13.586531  4.528979  2.703318
Ni 13.599836  8.123470  2.688000
Ni 13.589552 11.863918  2.770389
Ni 13.547846  0.873532  2.673485
Ni  0.930092  2.749088  6.295243
Ni  0.933076  4.538158  4.514663
Ni  2.733795  4.509650  6.236133
Ni  4.459059  2.618134  6.305316
Ni  4.468506  4.486590  4.477072
Ni  2.707487  2.686429  4.492190
Ni  6.258120  4.405202  6.285053
Ni  8.160919  2.632354  6.306399
Ni  6.276715  2.721688  4.469750
Ni  9.965473  4.519127  6.353430
Ni 11.727570  2.724845  6.310707
Ni  9.924530  8.202462  6.310005
Ni  9.979490  2.706871  4.516881
Ni  0.949197  6.347201  6.311853
Ni  0.939059  8.143447  4.558134
Ni  2.771103  8.166784  6.402838
Ni  4.556333  6.457481  2.863857
Ni  2.761921  6.376803  4.567314
Ni  6.325791  8.173942  6.294055
Ni  9.900149  9.986479  8.075342
Ni 11.820091  6.386190  6.287905
Ni 11.748848  8.167810  4.494875
Ni  8.165415  8.132478  4.492802
Ni  0.957996  9.945636  6.298498
Ni  4.538165 10.058795  6.352192
Ni  2.741792  9.995425  4.535504
Ni  6.333739 11.762500  6.289429
Ni  9.932636  9.965434  4.481254
Ni  8.146284 11.774878  4.439684
Ni  9.935731 11.831831  6.277745
Ni 11.811902  8.255461  8.158503
Ni 11.778401 11.749211  4.542492
Ni  0.871661 13.500321  6.246994
Ni  0.863075  0.921157  4.459099
Ni  2.756457 13.503384  4.502690
Ni  4.559648 13.560216  6.272798
Ni  2.705380 11.779097  2.676900
Ni  4.553185 13.555006  2.727335
Ni  6.353826  0.913774  6.267053
Ni  9.916719 13.640901  4.507494
Ni  6.398435 13.565067  4.418053
Ni  9.943724  0.885236  6.308292
Ni 11.739203 13.556322  6.327843
Ni 11.754802  0.938272  4.557966
Ni  8.152471 13.605509  2.594366
Ni  0.898249  4.541921  8.114413
Ni  2.746372  4.529913  9.944924
Ni  4.543615  2.681644  9.905656
Ni  4.584341  4.493472  8.094250
Ni  6.340664  4.515887  9.877715
Ni  8.176489  2.750675  9.910339
Ni  6.285664  2.614839  8.108858
Ni 11.822441  2.662766  9.927287
Ni 11.784847  4.533811  8.100959
Ni  9.970367  2.693102  8.111952
Ni  0.967811  8.087553  8.149694
Ni  2.769721  8.157835  9.898982
Ni  4.555168  6.360297  9.867229
Ni  6.392675  8.248374  9.998909
Ni  6.263261  6.343751  8.031604
Ni  8.099009  8.147045  8.072075
Ni  8.066476  6.329939  6.284233
Ni  9.890625  8.063027  9.916137
Ni 13.674793  4.522489 10.041177
Ni 11.757490  6.360252  9.930247
Ni  0.967963  9.961093  9.979845
Ni  0.911998 11.780490  8.180890
Ni  2.709047 11.789831  9.948589
Ni  4.554894 10.079700  9.957220
Ni  2.725405  9.992109  8.152140
Ni  6.363054 13.607747  8.124992
Ni  6.377520 10.071358  8.169792
Ni  9.910958 11.834797  9.959246
Ni 11.736086 11.780726  8.140858
Ni  8.162716 11.820841  8.114291
Ni  0.955200 13.608386  9.916744
Ni  0.933692  0.982360  8.142356
Ni  2.747221  0.950092  9.901729
Ni  4.513330 13.589641  9.957201
Ni  2.704157 13.582656  8.118751
Ni  8.182382 13.669826  9.998714
Ni  8.174817  0.921092  8.102304
Ni  9.974711  0.966197  9.932872
Ni 11.753259  0.857228  8.130298
Ni  0.967396  2.665671 13.549295
Ni  2.860366  4.536521 13.619337
Ni  2.732248  2.738139  0.904936
Ni  4.541184  4.535938 11.675290
Ni  2.777234  2.709672 11.722106
Ni  6.314650  2.689113 11.707663
Ni 11.760171  2.696219 13.582335
Ni  9.965313  2.766584 11.782267
Ni  0.949958  6.373534 13.531921
Ni  2.728611  8.194267 13.613929
Ni  4.527366  8.205549 11.707226
Ni  2.768813  6.367310 11.698817
Ni  6.329654  8.156776 13.566091
Ni  6.327918  6.350393 11.707239
Ni  8.134506  6.272459 13.577760
Ni 11.764565  6.340929 13.592159
Ni 11.708132  8.187942 11.701483
Ni  9.886156  6.244063 11.667140
Ni  0.904203 10.056632 13.525713
Ni  0.949182 11.816691 11.718242
Ni  2.738517 11.794630 13.537537
Ni  4.549381 11.807247 11.763283
Ni  2.786511 10.021638 11.728327
Ni  6.315480 11.767630 13.553395
Ni  8.149132  9.899371 13.548529
Ni  8.109581 11.741405 11.737373
Ni  9.957284 11.756007 13.520878
Ni 11.757769  9.988871 13.555541
Ni 11.718317 11.765122 11.745873
Ni  9.877741  9.930000 11.791927
Ni  0.947358  0.915436 11.724875
Ni  2.735572  0.904703 13.537072
Ni  4.532244 13.592110 13.493615
Ni  4.513034  0.888899 11.730573
Ni  2.745656 13.597467 11.693238
Ni  6.320189  0.938521 13.571259
Ni  8.125174 13.556646 13.627820
Ni  6.370941 13.637044 11.815776
Ni  9.982188  0.929035 13.571364
Ni 11.712354 13.570393 13.527868
Ni 11.718495  0.884874 11.760729
Ni  9.899467 13.568817 11.804984
Ni  0.927486  2.707219  2.692235
Ni  0.957388  4.520127  0.867743
Ni  2.677502  4.549216  2.733600
Ni  4.514715  2.726143  2.709910
Ni  6.175246  4.554695 13.583827
Ni  2.728853  0.935984  2.694184
Ni  6.320992  4.574889  2.786247
Ni  8.154228  2.751386  2.678299
Ni  8.108323  2.819510 13.582621
Ni  6.288195  2.766495  0.924243
Ni  9.962058  6.253477  0.911471
Ni 11.833444  2.717897  2.690938
Ni 11.846788  4.521958  0.892168
Ni  9.971709  2.750587  0.871614
Ni  0.910960  6.313515  2.697374
Ni  0.900528  8.171084  0.845716
Ni  4.499931  9.884466  2.676958
Ni  2.715995  6.329238  0.897044
Ni  6.371907  9.955242  4.458359
Ni  8.263455  6.228965  2.807776
Ni  8.177509  8.119267  0.881406
Ni  6.316926  6.369977  0.928524
Ni 11.772723  4.536748  4.540048
Ni 11.836829  8.155548  0.916995
Ni 11.726884  6.344009  2.709168
Ni  0.902893  9.963450  2.708101
Ni  0.892646 11.947997  0.908729
Ni  4.533736 11.676105  0.912046
Ni  4.474932  8.140110  0.930851
Ni  6.383074 11.739494  2.630878
Ni  8.171206  9.977278  2.682183
Ni  6.353288  9.897932  0.891528
Ni 11.793854  9.970811  2.676103
Ni 11.752708 11.760146  0.860100
Ni  9.993000 10.003442  0.884121
Ni  0.966901  0.816312  0.877929
Ni  4.508198  0.986353  0.917934
Ni  6.333713  0.938202  2.623082
Ni  9.975354 13.562029  0.875643
Ni 11.741586 13.572002  2.715532
Ni 11.769868  0.934083  0.844429
%ENDBLOCK POSITIONS_ABS

