#######################################################
#CASTEP cell file: /home/u2093113/Documents/kART/CASTEP/castep.cell
#Created using the Atomic Simulation Environment (ASE)#
#######################################################

%BLOCK LATTICE_CART
14.464828  0.000000  0.000000
 0.000000 14.464828  0.000000
 0.000000  0.000000 14.464828
%ENDBLOCK LATTICE_CART

%BLOCK POSITIONS_ABS
Al 13.583304  2.732114  4.506860
Al 13.600968  6.354214  4.505674
Al 13.547700  9.865155  4.430057
Al 13.435185 13.642439  4.591119
Al 13.517999  2.733847  8.055345
Al 13.511427  6.363683  8.076376
Al 13.735051  9.948859  8.188206
Al 13.639871 13.563595  8.054387
Al 13.473632  2.621281 11.833963
Al 13.427295  6.355038 11.819762
Al 13.561997 10.067989 11.784378
Al 13.586678 13.585590 11.731876
Al 13.630106  2.693379  0.873523
Al 13.610760  6.334568  0.872912
Al 13.600720 10.010489  0.887601
Al 13.416432 13.586634  0.889404
Al 10.116479  0.951541  2.669897
Al  6.173313 13.581558  0.871715
Al  8.145442  1.005252  0.810718
Al  2.536680  0.811209  6.217336
Al  2.951253 13.579368  0.897683
Al  2.576240 10.065081  0.908533
Al  4.590979  0.885106  4.426848
Al  0.990183 13.676595  2.716473
Al 10.035620 11.785945  2.766155
Al  8.152079 11.686953  0.803000
Al  4.466221  8.253540  4.704869
Al  2.613611  8.083639  2.722368
Al 10.119020  4.427202  2.668682
Al  6.417992  8.180903  2.631444
Al  4.523684  4.605583  1.104701
Al  8.234574  0.969247 11.872153
Al  1.029450 13.583188 13.505510
Al  6.315455  9.985867 11.777589
Al  4.498088  9.951340 13.596058
Al 10.071742  8.122407 13.664011
Al  8.161948  8.046664 11.844317
Al  4.518522  6.438626 13.494267
Al  1.099694  8.225596 11.821471
Al 10.079849  4.539652 13.554870
Al  9.971076  8.208702  2.624288
Al  7.946095  6.401318  9.795688
Al  7.967893  4.475515 11.785269
Al  4.534526  2.679833 13.508437
Al  1.118693  4.536563 11.932772
Al  9.909346 13.587338  8.109761
Al 11.664589 13.584467 10.016475
Al  8.034350 13.527170  6.263558
Al  6.374663  0.902486  9.962706
Al  4.538044  0.800094  8.075738
Al 11.555017  9.980995  9.934298
Al  6.411412 11.983022  9.980342
Al  8.280145  9.958458  9.833297
Al  4.560549 11.834859  8.156185
Al 10.081483  6.468469  7.984079
Al  2.914797  6.236232  7.888359
Al  4.644428  8.317461  8.142321
Al  1.063169  6.322890  9.866008
Al 10.133536  4.404311  9.935672
Al  8.018044  4.378000  7.955374
Al  2.750410  2.854957  8.066523
Al  0.980264  2.678547  9.970114
Al  8.076313  1.006244  4.431488
Al 11.636643  9.969972  6.328939
Al  8.126796 10.009379  6.269153
Al  4.608874 11.742736  4.401048
Al  2.667286 11.790341  6.390972
Al  0.942077 11.704954  4.469885
Al  8.133700  4.344985  4.623597
Al  7.988789  4.564260  0.929015
Al 10.011363  6.378732  4.661610
Al  6.266312  6.273201  4.679301
Ni 13.585893  4.546639  6.305749
Ni 13.582263  8.229041  6.342744
Ni 13.547647 11.665161  6.318716
Ni 13.583604  0.936134  6.338279
Ni 11.812899  4.511740 11.743988
Ni 13.657292  8.112490 10.027795
Ni 13.554785 11.792280  9.943847
Ni 13.569205  0.882291  9.928845
Ni 13.618399  4.508145 13.514631
Ni 13.570868  8.194931 13.470034
Ni 13.579182 11.860482 13.540666
Ni 13.600751  0.838563 13.550168
Ni 13.587152  4.532128  2.704184
Ni 13.599771  8.125062  2.689657
Ni 13.590124 11.863929  2.766538
Ni 13.551225  0.874710  2.669787
Ni  0.926867  2.741861  6.294377
Ni  0.930955  4.535557  4.517632
Ni  2.726272  4.485526  6.236547
Ni  4.465203  2.621165  6.306117
Ni  4.456071  4.512334  4.511761
Ni  2.711278  2.685185  4.493589
Ni  6.247330  4.440256  6.279606
Ni  8.161732  2.618550  6.321854
Ni  6.271968  2.720645  4.485429
Ni  9.981265  4.514558  6.363885
Ni 11.733870  2.720586  6.316088
Ni  9.925903  8.202507  6.311803
Ni  9.993820  2.691821  4.518854
Ni  0.951142  6.346644  6.318985
Ni  0.933038  8.150043  4.562754
Ni  2.721138  8.209411  6.408148
Ni  4.552540  6.471682  2.877144
Ni  2.753367  6.378018  4.595917
Ni  6.352990  8.186766  6.296660
Ni  9.900757  9.988124  8.077398
Ni 11.824217  6.387095  6.292284
Ni 11.749573  8.171262  4.494486
Ni  8.158625  8.133964  4.486879
Ni  0.941410  9.966269  6.297409
Ni  4.540965 10.059966  6.353421
Ni  2.743346 10.002215  4.540626
Ni  6.335881 11.768043  6.290995
Ni  9.935340  9.966533  4.480224
Ni  8.147499 11.775496  4.439185
Ni  9.937845 11.833970  6.278373
Ni 11.815877  8.258926  8.163142
Ni 11.778201 11.754362  4.540732
Ni  0.870624 13.502324  6.247676
Ni  0.863877  0.920266  4.458688
Ni  2.757122 13.505446  4.501203
Ni  4.560560 13.560691  6.273498
Ni  2.708683 11.780883  2.677125
Ni  4.555538 13.558219  2.727175
Ni  6.354824  0.907033  6.269543
Ni  9.916044 13.643074  4.504220
Ni  6.401891 13.567035  4.417039
Ni  9.947042  0.880879  6.313423
Ni 11.740783 13.557670  6.327726
Ni 11.759759  0.933213  4.556883
Ni  8.152526 13.606626  2.589998
Ni  0.906537  4.539615  8.112020
Ni  2.760737  4.531318  9.931534
Ni  4.550348  2.677946  9.904106
Ni  4.590699  4.468313  8.086557
Ni  6.340105  4.513085  9.869691
Ni  8.176665  2.752279  9.910027
Ni  6.292085  2.612766  8.102099
Ni 11.826202  2.665152  9.931654
Ni 11.793445  4.532392  8.108707
Ni  9.975624  2.690305  8.116885
Ni  0.962686  8.095675  8.151151
Ni  2.778775  8.164782  9.887303
Ni  4.556717  6.361489  9.836357
Ni  6.385777  8.253657  9.989351
Ni  6.239491  6.339897  7.995711
Ni  8.101977  8.148850  8.074942
Ni  8.107268  6.324367  6.306247
Ni  9.888844  8.061857  9.919767
Ni 13.684654  4.527116 10.043072
Ni 11.760658  6.360237  9.935445
Ni  0.968337  9.964608  9.980471
Ni  0.909166 11.786608  8.183378
Ni  2.709625 11.794642  9.950941
Ni  4.555328 10.081952  9.951128
Ni  2.720451 10.008328  8.154044
Ni  6.365210 13.609157  8.127510
Ni  6.380644 10.073902  8.167778
Ni  9.910717 11.835379  9.963231
Ni 11.736370 11.783130  8.145282
Ni  8.163794 11.823328  8.115206
Ni  0.956942 13.611126  9.920761
Ni  0.934577  0.981880  8.144569
Ni  2.749213  0.951145  9.903630
Ni  4.515564 13.592399  9.959867
Ni  2.705828 13.584796  8.120718
Ni  8.184473 13.669462 10.004927
Ni  8.179250  0.915106  8.111077
Ni  9.976344  0.967796  9.939002
Ni 11.755333  0.856854  8.135543
Ni  0.975359  2.673807 13.547916
Ni  2.864754  4.542377 13.618357
Ni  2.736124  2.746885  0.909151
Ni  4.546386  4.540986 11.669977
Ni  2.783409  2.715968 11.718613
Ni  6.316628  2.691964 11.709093
Ni 11.762971  2.701973 13.581758
Ni  9.964150  2.772762 11.785245
Ni  0.957046  6.374842 13.529822
Ni  2.728645  8.193658 13.607696
Ni  4.529302  8.205232 11.700130
Ni  2.778699  6.369628 11.687588
Ni  6.327875  8.156799 13.565413
Ni  6.322421  6.352974 11.700286
Ni  8.131023  6.275618 13.579463
Ni 11.767067  6.342345 13.589619
Ni 11.710997  8.185120 11.702101
Ni  9.882005  6.242124 11.664585
Ni  0.908987 10.053264 13.524235
Ni  0.951459 11.819039 11.720832
Ni  2.741130 11.794833 13.538482
Ni  4.549145 11.807822 11.761185
Ni  2.788643 10.021262 11.725328
Ni  6.312676 11.769466 13.550953
Ni  8.148224  9.898736 13.546931
Ni  8.110230 11.740993 11.739599
Ni  9.957144 11.754305 13.522571
Ni 11.758600  9.985498 13.555530
Ni 11.718749 11.764014 11.748508
Ni  9.876855  9.925759 11.793770
Ni  0.951501  0.918602 11.727675
Ni  2.740331  0.910117 13.537794
Ni  4.533625 13.593634 13.492586
Ni  4.516392  0.892140 11.731153
Ni  2.747578 13.600631 11.695386
Ni  6.318656  0.941834 13.572544
Ni  8.124430 13.557984 13.628964
Ni  6.372177 13.638714 11.816412
Ni  9.983302  0.932146 13.572013
Ni 11.715540 13.570335 13.528154
Ni 11.721311  0.889748 11.764003
Ni  9.900765 13.570702 11.809365
Ni  0.929827  2.710263  2.694281
Ni  0.963134  4.525710  0.870881
Ni  2.682045  4.558519  2.743391
Ni  4.513486  2.738626  2.723312
Ni  6.174658  4.559758 13.584811
Ni  2.731864  0.937580  2.696074
Ni  6.324561  4.559447  2.803335
Ni  8.157734  2.745691  2.673263
Ni  8.106919  2.826191 13.584500
Ni  6.286248  2.770844  0.926572
Ni  9.956408  6.255311  0.919967
Ni 11.837629  2.717117  2.686329
Ni 11.849609  4.525410  0.890110
Ni  9.972518  2.752565  0.867790
Ni  0.914155  6.317048  2.704753
Ni  0.905901  8.169553  0.849326
Ni  4.495423  9.877223  2.695334
Ni  2.721418  6.334609  0.902536
Ni  6.360313  9.964751  4.464668
Ni  8.246851  6.220521  2.829453
Ni  8.176511  8.121404  0.882453
Ni  6.313913  6.375169  0.931450
Ni 11.774296  4.534599  4.540380
Ni 11.835898  8.154380  0.916493
Ni 11.728277  6.344870  2.709686
Ni  0.905695  9.963947  2.710240
Ni  0.897366 11.946689  0.909020
Ni  4.532236 11.673376  0.916232
Ni  4.468288  8.149720  0.929157
Ni  6.381030 11.740043  2.632202
Ni  8.171520  9.983153  2.683771
Ni  6.350361  9.908101  0.883188
Ni 11.793862  9.970803  2.674227
Ni 11.755327 11.759721  0.858607
Ni  9.992143 10.002908  0.883145
Ni  0.972674  0.822789  0.876156
Ni  4.509047  0.995626  0.922610
Ni  6.333865  0.942810  2.624614
Ni  9.976924 13.561894  0.873009
Ni 11.743709 13.574152  2.712383
Ni 11.772712  0.935151  0.841670
%ENDBLOCK POSITIONS_ABS

