%block lattice_abc 
  14.46482773 14.46482773 14.46482773 #lattice params 
 90.0  90.0  90.0 
     %endblock lattice_abc 
     fix_all_cell : true 
     %BLOCK POSITIONS_ABS 
Al 13.584373  2.733466  4.508207
 Al 13.599294  6.353334  4.498269
 Al 13.553193  9.851046  4.429959
 Al 13.428210 13.642020  4.596496
 Al 13.506338  2.734329  8.047604
 Al 13.503450  6.363316  8.067002
 Al 13.740664  9.939480  8.179497
 Al 13.639909 13.556812  8.045649
 Al 13.461099  2.612316 11.830579
 Al 13.403299  6.354004 11.825335
 Al 13.555121 10.071345 11.784379
 Al 13.581307 13.580639 11.724638
 Al 13.619533  2.683550  0.878040
 Al 13.600300  6.330525  0.872208
 Al 13.592426 10.016063  0.888830
 Al 13.410525 13.584209  0.895350
 Al 10.114532  0.950907  2.679219
 Al  6.179587 13.577355  0.872572
 Al  8.146446  1.004101  0.816848
 Al  2.531907  0.816835  6.217322
 Al  2.941633 13.571345  0.899286
 Al  2.569747 10.071735  0.903844
 Al  4.587587  0.887890  4.423510
 Al  0.983008 13.673224  2.724661
 Al 10.033746 11.782622  2.772090
 Al  8.155091 11.683294  0.805264
 Al  4.519370  8.327028  4.579989
 Al  2.607560  8.080503  2.692820
 Al 10.109346  4.432119  2.676989
 Al  6.451024  8.095077  2.675241
 Al  4.514783  4.593955  1.091162
 Al  8.233111  0.960959 11.865120
 Al  1.020145 13.579354 13.500270
 Al  6.318210  9.987156 11.781722
 Al  4.502333  9.949919 13.604381
 Al 10.078786  8.129881 13.666733
 Al  8.171207  8.056846 11.856971
 Al  4.517530  6.431991 13.493032
 Al  1.089038  8.234361 11.843194
 Al 10.086172  4.526678 13.552006
 Al  9.980080  8.211264  2.623741
 Al  7.990436  6.398919  9.836793
 Al  7.972449  4.461796 11.791929
 Al  4.532169  2.666600 13.506147
 Al  1.101668  4.520772 11.952523
 Al  9.903043 13.589977  8.101889
 Al 11.662729 13.583247 10.002123
 Al  8.023599 13.524415  6.262400
 Al  6.367337  0.901787  9.957212
 Al  4.531986  0.802230  8.073583
 Al 11.556220  9.979302  9.927464
 Al  6.408580 11.979340  9.974237
 Al  8.279780  9.955829  9.830312
 Al  4.560828 11.826296  8.159721
 Al 10.051632  6.463853  7.957059
 Al  2.792734  6.230772  8.043089
 Al  4.649818  8.303191  8.197107
 Al  0.994176  6.321897  9.926886
 Al 10.136606  4.403317  9.935440
 Al  8.015635  4.379489  7.967272
 Al  2.750228  2.877552  8.064427
 Al  0.969799  2.673576  9.967091
 Al  8.073689  1.001224  4.431501
 Al 11.637273  9.964391  6.324338
 Al  8.116577 10.001011  6.274987
 Al  4.611010 11.728102  4.396534
 Al  2.664198 11.778962  6.387301
 Al  0.942610 11.695382  4.476991
 Al  8.013132  4.473379  4.591074
 Al  7.994812  4.551741  0.918052
 Al  9.991743  6.376714  4.662010
 Al  4.760466  6.188356  6.097911
 Ni 13.587052  4.548649  6.301269
 Ni 13.588934  8.222556  6.339598
 Ni 13.563016 11.646261  6.314628
 Ni 13.583920  0.940304  6.336974
 Ni 11.807701  4.504326 11.741034
 Ni 13.646654  8.119216 10.025669
 Ni 13.554432 11.784654  9.934541
 Ni 13.564188  0.879012  9.920837
 Ni 13.605401  4.498398 13.519608
 Ni 13.560517  8.199412 13.469428
 Ni 13.573222 11.864000 13.538885
 Ni 13.593670  0.829700 13.547234
 Ni 13.585909  4.525829  2.702451
 Ni 13.599901  8.121878  2.686342
 Ni 13.588980 11.863907  2.774239
 Ni 13.544467  0.872353  2.677184
 Ni  0.933317  2.756314  6.296108
 Ni  0.935197  4.540759  4.511694
 Ni  2.741318  4.533775  6.235719
 Ni  4.452916  2.615103  6.304514
 Ni  4.480942  4.460846  4.442383
 Ni  2.703695  2.687674  4.490791
 Ni  6.268910  4.370147  6.290500
 Ni  8.160106  2.646157  6.290944
 Ni  6.281461  2.722732  4.454072
 Ni  9.949682  4.523695  6.342976
 Ni 11.721269  2.729104  6.305325
 Ni  9.923158  8.202417  6.308208
 Ni  9.965160  2.721920  4.514908
 Ni  0.947253  6.347757  6.304720
 Ni  0.945080  8.136851  4.553514
 Ni  2.821068  8.124158  6.397528
 Ni  4.560127  6.443279  2.850570
 Ni  2.770476  6.375587  4.538711
 Ni  6.298593  8.161117  6.291450
 Ni  9.899541  9.984833  8.073286
 Ni 11.815966  6.385285  6.283527
 Ni 11.748122  8.164359  4.495265
 Ni  8.172204  8.130991  4.498724
 Ni  0.974582  9.925002  6.299588
 Ni  4.535366 10.057624  6.350963
 Ni  2.740238  9.988634  4.530383
 Ni  6.331596 11.756957  6.287863
 Ni  9.929932  9.964335  4.482284
 Ni  8.145068 11.774260  4.440183
 Ni  9.933617 11.829692  6.277118
 Ni 11.807927  8.251996  8.153863
 Ni 11.778602 11.744060  4.544251
 Ni  0.872698 13.498319  6.246311
 Ni  0.862274  0.922048  4.459511
 Ni  2.755792 13.501321  4.504178
 Ni  4.558735 13.559741  6.272099
 Ni  2.702077 11.777311  2.676674
 Ni  4.550832 13.551794  2.727495
 Ni  6.352829  0.920515  6.264562
 Ni  9.917394 13.638728  4.510767
 Ni  6.394979 13.563098  4.419067
 Ni  9.940406  0.889594  6.303162
 Ni 11.737622 13.554974  6.327961
 Ni 11.749845  0.943331  4.559048
 Ni  8.152416 13.604392  2.598734
 Ni  0.889961  4.544227  8.116807
 Ni  2.732007  4.528508  9.958314
 Ni  4.536882  2.685342  9.907206
 Ni  4.577983  4.518632  8.101943
 Ni  6.341223  4.518689  9.885739
 Ni  8.176314  2.749071  9.910651
 Ni  6.279243  2.616913  8.115617
 Ni 11.818680  2.660379  9.922920
 Ni 11.776249  4.535230  8.093210
 Ni  9.965109  2.695899  8.107019
 Ni  0.972936  8.079432  8.148237
 Ni  2.760666  8.150889  9.910661
 Ni  4.553618  6.359106  9.898101
 Ni  6.399572  8.243092 10.008466
 Ni  6.287031  6.347604  8.067496
 Ni  8.096041  8.145240  8.069207
 Ni  8.025683  6.335510  6.262219
 Ni  9.892405  8.064197  9.912507
 Ni 13.664932  4.517863 10.039282
 Ni 11.754322  6.360266  9.925049
 Ni  0.967590  9.957579  9.979218
 Ni  0.914829 11.774371  8.178402
 Ni  2.708469 11.785021  9.946237
 Ni  4.554459 10.077449  9.963311
 Ni  2.730359  9.975889  8.150237
 Ni  6.360897 13.606337  8.122473
 Ni  6.374396 10.068814  8.171806
 Ni  9.911199 11.834215  9.955262
 Ni 11.735803 11.778323  8.136435
 Ni  8.161637 11.818354  8.113376
 Ni  0.953458 13.605646  9.912726
 Ni  0.932807  0.982841  8.140143
 Ni  2.745229  0.949040  9.899828
 Ni  4.511096 13.586882  9.954536
 Ni  2.702486 13.580517  8.116784
 Ni  8.180291 13.670189  9.992501
 Ni  8.170384  0.927079  8.093530
 Ni  9.973079  0.964598  9.926743
 Ni 11.751186  0.857603  8.125054
 Ni  0.959434  2.657536 13.550674
 Ni  2.855977  4.530665 13.620316
 Ni  2.728372  2.729392  0.900721
 Ni  4.535982  4.530889 11.680603
 Ni  2.771059  2.703376 11.725599
 Ni  6.312673  2.686261 11.706234
 Ni 11.757371  2.690465 13.582912
 Ni  9.966476  2.760406 11.779289
 Ni  0.942869  6.372226 13.534020
 Ni  2.728577  8.194876 13.620163
 Ni  4.525430  8.205866 11.714322
 Ni  2.758927  6.364991 11.710045
 Ni  6.331434  8.156753 13.566768
 Ni  6.333416  6.347813 11.714191
 Ni  8.137990  6.269300 13.576056
 Ni 11.762064  6.339512 13.594700
 Ni 11.705267  8.190763 11.700866
 Ni  9.890308  6.246002 11.669696
 Ni  0.899419 10.060001 13.527190
 Ni  0.946904 11.814343 11.715652
 Ni  2.735903 11.794428 13.536592
 Ni  4.549616 11.806671 11.765382
 Ni  2.784380 10.022014 11.731326
 Ni  6.318284 11.765795 13.555838
 Ni  8.150040  9.900007 13.550128
 Ni  8.108931 11.741817 11.735148
 Ni  9.957424 11.757708 13.519184
 Ni 11.756938  9.992244 13.555552
 Ni 11.717885 11.766231 11.743237
 Ni  9.878628  9.934241 11.790084
 Ni  0.943215  0.912271 11.722075
 Ni  2.730813  0.899290 13.536351
 Ni  4.530862 13.590586 13.494644
 Ni  4.509676  0.885658 11.729993
 Ni  2.743734 13.594304 11.691090
 Ni  6.321723  0.935208 13.569975
 Ni  8.125917 13.555309 13.626677
 Ni  6.369704 13.635373 11.815140
 Ni  9.981074  0.925924 13.570715
 Ni 11.709168 13.570451 13.527582
 Ni 11.715680  0.880000 11.757454
 Ni  9.898169 13.566933 11.800602
 Ni  0.925145  2.704176  2.690188
 Ni  0.951643  4.514543  0.864604
 Ni  2.672960  4.539914  2.723810
 Ni  4.515945  2.713659  2.696509
 Ni  6.175835  4.549632 13.582844
 Ni  2.725843  0.934387  2.692295
 Ni  6.317423  4.590330  2.769158
 Ni  8.150722  2.757081  2.683335
 Ni  8.109728  2.812829 13.580743
 Ni  6.290143  2.762145  0.921913
 Ni  9.967708  6.251643  0.902975
 Ni 11.829259  2.718676  2.695547
 Ni 11.843967  4.518506  0.894226
 Ni  9.970900  2.748609  0.875439
 Ni  0.907764  6.309981  2.689995
 Ni  0.895155  8.172616  0.842105
 Ni  4.504438  9.891709  2.658581
 Ni  2.710572  6.323867  0.891552
 Ni  6.383501  9.945734  4.452051
 Ni  8.280058  6.237410  2.786100
 Ni  8.178506  8.117130  0.880359
 Ni  6.319939  6.364785  0.925598
 Ni 11.771149  4.538897  4.539716
 Ni 11.837761  8.156715  0.917497
 Ni 11.725491  6.343148  2.708650
 Ni  0.900091  9.962953  2.705962
 Ni  0.887926 11.949304  0.908438
 Ni  4.535235 11.678833  0.907861
 Ni  4.481576  8.130500  0.932545
 Ni  6.385117 11.738945  2.629553
 Ni  8.170892  9.971403  2.680595
 Ni  6.356214  9.887763  0.899867
 Ni 11.793847  9.970819  2.677980
 Ni 11.750089 11.760572  0.861593
 Ni  9.993856 10.003976  0.885096
 Ni  0.961128  0.809836  0.879701
 Ni  4.507348  0.977080  0.913258
 Ni  6.333561  0.933595  2.621549
 Ni  9.973785 13.562163  0.878276
 Ni 11.739464 13.569853  2.718681
 Ni 11.767024  0.933016  0.847188
 %ENDBLOCK POSITIONS_ABS
 
%block positions_abs_product 
     ang 
Al 13.583304  2.732114  4.506860
 Al 13.600968  6.354214  4.505674
 Al 13.547700  9.865155  4.430057
 Al 13.435185 13.642439  4.591119
 Al 13.517999  2.733847  8.055345
 Al 13.511427  6.363683  8.076376
 Al 13.735051  9.948859  8.188206
 Al 13.639871 13.563595  8.054387
 Al 13.473632  2.621281 11.833963
 Al 13.427295  6.355038 11.819762
 Al 13.561997 10.067989 11.784378
 Al 13.586678 13.585590 11.731876
 Al 13.630106  2.693379  0.873523
 Al 13.610760  6.334568  0.872912
 Al 13.600720 10.010489  0.887601
 Al 13.416432 13.586634  0.889404
 Al 10.116479  0.951541  2.669897
 Al  6.173313 13.581558  0.871715
 Al  8.145442  1.005252  0.810718
 Al  2.536680  0.811209  6.217336
 Al  2.951253 13.579368  0.897683
 Al  2.576240 10.065081  0.908533
 Al  4.590979  0.885106  4.426848
 Al  0.990183 13.676595  2.716473
 Al 10.035620 11.785945  2.766155
 Al  8.152079 11.686953  0.803000
 Al  4.466221  8.253540  4.704869
 Al  2.613611  8.083639  2.722368
 Al 10.119020  4.427202  2.668682
 Al  6.417992  8.180903  2.631444
 Al  4.523684  4.605583  1.104701
 Al  8.234574  0.969247 11.872153
 Al  1.029450 13.583188 13.505510
 Al  6.315455  9.985867 11.777589
 Al  4.498088  9.951340 13.596058
 Al 10.071742  8.122407 13.664011
 Al  8.161948  8.046664 11.844317
 Al  4.518522  6.438626 13.494267
 Al  1.099694  8.225596 11.821471
 Al 10.079849  4.539652 13.554870
 Al  9.971076  8.208702  2.624288
 Al  7.946095  6.401318  9.795688
 Al  7.967893  4.475515 11.785269
 Al  4.534526  2.679833 13.508437
 Al  1.118693  4.536563 11.932772
 Al  9.909346 13.587338  8.109761
 Al 11.664589 13.584467 10.016475
 Al  8.034350 13.527170  6.263558
 Al  6.374663  0.902486  9.962706
 Al  4.538044  0.800094  8.075738
 Al 11.555017  9.980995  9.934298
 Al  6.411412 11.983022  9.980342
 Al  8.280145  9.958458  9.833297
 Al  4.560549 11.834859  8.156185
 Al 10.081483  6.468469  7.984079
 Al  2.914797  6.236232  7.888359
 Al  4.644428  8.317461  8.142321
 Al  1.063169  6.322890  9.866008
 Al 10.133536  4.404311  9.935672
 Al  8.018044  4.378000  7.955374
 Al  2.750410  2.854957  8.066523
 Al  0.980264  2.678547  9.970114
 Al  8.076313  1.006244  4.431488
 Al 11.636643  9.969972  6.328939
 Al  8.126796 10.009379  6.269153
 Al  4.608874 11.742736  4.401048
 Al  2.667286 11.790341  6.390972
 Al  0.942077 11.704954  4.469885
 Al  8.133700  4.344985  4.623597
 Al  7.988789  4.564260  0.929015
 Al 10.011363  6.378732  4.661610
 Al  6.266312  6.273201  4.679301
 Ni 13.585893  4.546639  6.305749
 Ni 13.582263  8.229041  6.342744
 Ni 13.547647 11.665161  6.318716
 Ni 13.583604  0.936134  6.338279
 Ni 11.812899  4.511740 11.743988
 Ni 13.657292  8.112490 10.027795
 Ni 13.554785 11.792280  9.943847
 Ni 13.569205  0.882291  9.928845
 Ni 13.618399  4.508145 13.514631
 Ni 13.570868  8.194931 13.470034
 Ni 13.579182 11.860482 13.540666
 Ni 13.600751  0.838563 13.550168
 Ni 13.587152  4.532128  2.704184
 Ni 13.599771  8.125062  2.689657
 Ni 13.590124 11.863929  2.766538
 Ni 13.551225  0.874710  2.669787
 Ni  0.926867  2.741861  6.294377
 Ni  0.930955  4.535557  4.517632
 Ni  2.726272  4.485526  6.236547
 Ni  4.465203  2.621165  6.306117
 Ni  4.456071  4.512334  4.511761
 Ni  2.711278  2.685185  4.493589
 Ni  6.247330  4.440256  6.279606
 Ni  8.161732  2.618550  6.321854
 Ni  6.271968  2.720645  4.485429
 Ni  9.981265  4.514558  6.363885
 Ni 11.733870  2.720586  6.316088
 Ni  9.925903  8.202507  6.311803
 Ni  9.993820  2.691821  4.518854
 Ni  0.951142  6.346644  6.318985
 Ni  0.933038  8.150043  4.562754
 Ni  2.721138  8.209411  6.408148
 Ni  4.552540  6.471682  2.877144
 Ni  2.753367  6.378018  4.595917
 Ni  6.352990  8.186766  6.296660
 Ni  9.900757  9.988124  8.077398
 Ni 11.824217  6.387095  6.292284
 Ni 11.749573  8.171262  4.494486
 Ni  8.158625  8.133964  4.486879
 Ni  0.941410  9.966269  6.297409
 Ni  4.540965 10.059966  6.353421
 Ni  2.743346 10.002215  4.540626
 Ni  6.335881 11.768043  6.290995
 Ni  9.935340  9.966533  4.480224
 Ni  8.147499 11.775496  4.439185
 Ni  9.937845 11.833970  6.278373
 Ni 11.815877  8.258926  8.163142
 Ni 11.778201 11.754362  4.540732
 Ni  0.870624 13.502324  6.247676
 Ni  0.863877  0.920266  4.458688
 Ni  2.757122 13.505446  4.501203
 Ni  4.560560 13.560691  6.273498
 Ni  2.708683 11.780883  2.677125
 Ni  4.555538 13.558219  2.727175
 Ni  6.354824  0.907033  6.269543
 Ni  9.916044 13.643074  4.504220
 Ni  6.401891 13.567035  4.417039
 Ni  9.947042  0.880879  6.313423
 Ni 11.740783 13.557670  6.327726
 Ni 11.759759  0.933213  4.556883
 Ni  8.152526 13.606626  2.589998
 Ni  0.906537  4.539615  8.112020
 Ni  2.760737  4.531318  9.931534
 Ni  4.550348  2.677946  9.904106
 Ni  4.590699  4.468313  8.086557
 Ni  6.340105  4.513085  9.869691
 Ni  8.176665  2.752279  9.910027
 Ni  6.292085  2.612766  8.102099
 Ni 11.826202  2.665152  9.931654
 Ni 11.793445  4.532392  8.108707
 Ni  9.975624  2.690305  8.116885
 Ni  0.962686  8.095675  8.151151
 Ni  2.778775  8.164782  9.887303
 Ni  4.556717  6.361489  9.836357
 Ni  6.385777  8.253657  9.989351
 Ni  6.239491  6.339897  7.995711
 Ni  8.101977  8.148850  8.074942
 Ni  8.107268  6.324367  6.306247
 Ni  9.888844  8.061857  9.919767
 Ni 13.684654  4.527116 10.043072
 Ni 11.760658  6.360237  9.935445
 Ni  0.968337  9.964608  9.980471
 Ni  0.909166 11.786608  8.183378
 Ni  2.709625 11.794642  9.950941
 Ni  4.555328 10.081952  9.951128
 Ni  2.720451 10.008328  8.154044
 Ni  6.365210 13.609157  8.127510
 Ni  6.380644 10.073902  8.167778
 Ni  9.910717 11.835379  9.963231
 Ni 11.736370 11.783130  8.145282
 Ni  8.163794 11.823328  8.115206
 Ni  0.956942 13.611126  9.920761
 Ni  0.934577  0.981880  8.144569
 Ni  2.749213  0.951145  9.903630
 Ni  4.515564 13.592399  9.959867
 Ni  2.705828 13.584796  8.120718
 Ni  8.184473 13.669462 10.004927
 Ni  8.179250  0.915106  8.111077
 Ni  9.976344  0.967796  9.939002
 Ni 11.755333  0.856854  8.135543
 Ni  0.975359  2.673807 13.547916
 Ni  2.864754  4.542377 13.618357
 Ni  2.736124  2.746885  0.909151
 Ni  4.546386  4.540986 11.669977
 Ni  2.783409  2.715968 11.718613
 Ni  6.316628  2.691964 11.709093
 Ni 11.762971  2.701973 13.581758
 Ni  9.964150  2.772762 11.785245
 Ni  0.957046  6.374842 13.529822
 Ni  2.728645  8.193658 13.607696
 Ni  4.529302  8.205232 11.700130
 Ni  2.778699  6.369628 11.687588
 Ni  6.327875  8.156799 13.565413
 Ni  6.322421  6.352974 11.700286
 Ni  8.131023  6.275618 13.579463
 Ni 11.767067  6.342345 13.589619
 Ni 11.710997  8.185120 11.702101
 Ni  9.882005  6.242124 11.664585
 Ni  0.908987 10.053264 13.524235
 Ni  0.951459 11.819039 11.720832
 Ni  2.741130 11.794833 13.538482
 Ni  4.549145 11.807822 11.761185
 Ni  2.788643 10.021262 11.725328
 Ni  6.312676 11.769466 13.550953
 Ni  8.148224  9.898736 13.546931
 Ni  8.110230 11.740993 11.739599
 Ni  9.957144 11.754305 13.522571
 Ni 11.758600  9.985498 13.555530
 Ni 11.718749 11.764014 11.748508
 Ni  9.876855  9.925759 11.793770
 Ni  0.951501  0.918602 11.727675
 Ni  2.740331  0.910117 13.537794
 Ni  4.533625 13.593634 13.492586
 Ni  4.516392  0.892140 11.731153
 Ni  2.747578 13.600631 11.695386
 Ni  6.318656  0.941834 13.572544
 Ni  8.124430 13.557984 13.628964
 Ni  6.372177 13.638714 11.816412
 Ni  9.983302  0.932146 13.572013
 Ni 11.715540 13.570335 13.528154
 Ni 11.721311  0.889748 11.764003
 Ni  9.900765 13.570702 11.809365
 Ni  0.929827  2.710263  2.694281
 Ni  0.963134  4.525710  0.870881
 Ni  2.682045  4.558519  2.743391
 Ni  4.513486  2.738626  2.723312
 Ni  6.174658  4.559758 13.584811
 Ni  2.731864  0.937580  2.696074
 Ni  6.324561  4.559447  2.803335
 Ni  8.157734  2.745691  2.673263
 Ni  8.106919  2.826191 13.584500
 Ni  6.286248  2.770844  0.926572
 Ni  9.956408  6.255311  0.919967
 Ni 11.837629  2.717117  2.686329
 Ni 11.849609  4.525410  0.890110
 Ni  9.972518  2.752565  0.867790
 Ni  0.914155  6.317048  2.704753
 Ni  0.905901  8.169553  0.849326
 Ni  4.495423  9.877223  2.695334
 Ni  2.721418  6.334609  0.902536
 Ni  6.360313  9.964751  4.464668
 Ni  8.246851  6.220521  2.829453
 Ni  8.176511  8.121404  0.882453
 Ni  6.313913  6.375169  0.931450
 Ni 11.774296  4.534599  4.540380
 Ni 11.835898  8.154380  0.916493
 Ni 11.728277  6.344870  2.709686
 Ni  0.905695  9.963947  2.710240
 Ni  0.897366 11.946689  0.909020
 Ni  4.532236 11.673376  0.916232
 Ni  4.468288  8.149720  0.929157
 Ni  6.381030 11.740043  2.632202
 Ni  8.171520  9.983153  2.683771
 Ni  6.350361  9.908101  0.883188
 Ni 11.793862  9.970803  2.674227
 Ni 11.755327 11.759721  0.858607
 Ni  9.992143 10.002908  0.883145
 Ni  0.972674  0.822789  0.876156
 Ni  4.509047  0.995626  0.922610
 Ni  6.333865  0.942810  2.624614
 Ni  9.976924 13.561894  0.873009
 Ni 11.743709 13.574152  2.712383
 Ni 11.772712  0.935151  0.841670
%endblock positions_abs_product 
%block positions_abs_intermediate 
     ang 
Al 13.583839  2.732790  4.507534
 Al 13.600131  6.353774  4.501971
 Al 13.550447  9.858101  4.430008
 Al 13.431698 13.642229  4.593808
 Al 13.512169  2.734088  8.051475
 Al 13.507439  6.363500  8.071689
 Al 13.737858  9.944169  8.183851
 Al 13.639890 13.560203  8.050018
 Al 13.467366  2.616799 11.832271
 Al 13.415297  6.354521 11.822548
 Al 13.558559 10.069667 11.784379
 Al 13.583993 13.583114 11.728257
 Al 13.624820  2.688464  0.875782
 Al 13.605530  6.332546  0.872560
 Al 13.596573 10.013276  0.888215
 Al 13.413479 13.585421  0.892377
 Al 10.115505  0.951224  2.674558
 Al  6.176450 13.579456  0.872143
 Al  8.145944  1.004676  0.813783
 Al  2.534294  0.814022  6.217329
 Al  2.946443 13.575356  0.898485
 Al  2.572994 10.068408  0.906189
 Al  4.589283  0.886498  4.425179
 Al  0.986595 13.674910  2.720567
 Al 10.034683 11.784284  2.769123
 Al  8.153585 11.685124  0.804132
 Al  4.492796  8.290284  4.642429
 Al  2.610586  8.082071  2.707594
 Al 10.114183  4.429661  2.672836
 Al  6.434508  8.137990  2.653342
 Al  4.519233  4.599769  1.097932
 Al  8.233842  0.965103 11.868636
 Al  1.024797 13.581271 13.502890
 Al  6.316833  9.986512 11.779656
 Al  4.500211  9.950629 13.600220
 Al 10.075264  8.126144 13.665372
 Al  8.166577  8.051755 11.850644
 Al  4.518026  6.435309 13.493650
 Al  1.094366  8.229978 11.832333
 Al 10.083010  4.533165 13.553438
 Al  9.975578  8.209983  2.624015
 Al  7.968265  6.400119  9.816241
 Al  7.970171  4.468655 11.788599
 Al  4.533347  2.673217 13.507292
 Al  1.110181  4.528668 11.942647
 Al  9.906194 13.588658  8.105825
 Al 11.663659 13.583857 10.009299
 Al  8.028974 13.525793  6.262979
 Al  6.371000  0.902137  9.959959
 Al  4.535015  0.801162  8.074661
 Al 11.555618  9.980149  9.930881
 Al  6.409996 11.981181  9.977289
 Al  8.279963  9.957143  9.831804
 Al  4.560689 11.830577  8.157953
 Al 10.066557  6.466161  7.970569
 Al  2.853766  6.233502  7.965724
 Al  4.647123  8.310326  8.169714
 Al  1.028672  6.322393  9.896447
 Al 10.135071  4.403814  9.935556
 Al  8.016839  4.378744  7.961323
 Al  2.750319  2.866255  8.065475
 Al  0.975031  2.676062  9.968603
 Al  8.075001  1.003734  4.431495
 Al 11.636958  9.967181  6.326639
 Al  8.121686 10.005195  6.272070
 Al  4.609942 11.735419  4.398791
 Al  2.665742 11.784651  6.389136
 Al  0.942344 11.700168  4.473438
 Al  8.073416  4.409182  4.607335
 Al  7.991800  4.558001  0.923534
 Al 10.001553  6.377723  4.661810
 Al  5.513389  6.230779  5.388606
 Ni 13.586473  4.547644  6.303509
 Ni 13.585598  8.225798  6.341171
 Ni 13.555332 11.655711  6.316672
 Ni 13.583762  0.938219  6.337626
 Ni 11.810300  4.508033 11.742511
 Ni 13.651973  8.115853 10.026732
 Ni 13.554608 11.788467  9.939194
 Ni 13.566696  0.880652  9.924841
 Ni 13.611900  4.503271 13.517120
 Ni 13.565692  8.197172 13.469731
 Ni 13.576202 11.862241 13.539775
 Ni 13.597210  0.834131 13.548701
 Ni 13.586531  4.528979  2.703318
 Ni 13.599836  8.123470  2.688000
 Ni 13.589552 11.863918  2.770389
 Ni 13.547846  0.873532  2.673485
 Ni  0.930092  2.749088  6.295243
 Ni  0.933076  4.538158  4.514663
 Ni  2.733795  4.509650  6.236133
 Ni  4.459059  2.618134  6.305316
 Ni  4.468506  4.486590  4.477072
 Ni  2.707487  2.686429  4.492190
 Ni  6.258120  4.405202  6.285053
 Ni  8.160919  2.632354  6.306399
 Ni  6.276715  2.721688  4.469750
 Ni  9.965473  4.519127  6.353430
 Ni 11.727570  2.724845  6.310707
 Ni  9.924530  8.202462  6.310005
 Ni  9.979490  2.706871  4.516881
 Ni  0.949197  6.347201  6.311853
 Ni  0.939059  8.143447  4.558134
 Ni  2.771103  8.166784  6.402838
 Ni  4.556333  6.457481  2.863857
 Ni  2.761921  6.376803  4.567314
 Ni  6.325791  8.173942  6.294055
 Ni  9.900149  9.986479  8.075342
 Ni 11.820091  6.386190  6.287905
 Ni 11.748848  8.167810  4.494875
 Ni  8.165415  8.132478  4.492802
 Ni  0.957996  9.945636  6.298498
 Ni  4.538165 10.058795  6.352192
 Ni  2.741792  9.995425  4.535504
 Ni  6.333739 11.762500  6.289429
 Ni  9.932636  9.965434  4.481254
 Ni  8.146284 11.774878  4.439684
 Ni  9.935731 11.831831  6.277745
 Ni 11.811902  8.255461  8.158503
 Ni 11.778401 11.749211  4.542492
 Ni  0.871661 13.500321  6.246994
 Ni  0.863075  0.921157  4.459099
 Ni  2.756457 13.503384  4.502690
 Ni  4.559648 13.560216  6.272798
 Ni  2.705380 11.779097  2.676900
 Ni  4.553185 13.555006  2.727335
 Ni  6.353826  0.913774  6.267053
 Ni  9.916719 13.640901  4.507494
 Ni  6.398435 13.565067  4.418053
 Ni  9.943724  0.885236  6.308292
 Ni 11.739203 13.556322  6.327843
 Ni 11.754802  0.938272  4.557966
 Ni  8.152471 13.605509  2.594366
 Ni  0.898249  4.541921  8.114413
 Ni  2.746372  4.529913  9.944924
 Ni  4.543615  2.681644  9.905656
 Ni  4.584341  4.493472  8.094250
 Ni  6.340664  4.515887  9.877715
 Ni  8.176489  2.750675  9.910339
 Ni  6.285664  2.614839  8.108858
 Ni 11.822441  2.662766  9.927287
 Ni 11.784847  4.533811  8.100959
 Ni  9.970367  2.693102  8.111952
 Ni  0.967811  8.087553  8.149694
 Ni  2.769721  8.157835  9.898982
 Ni  4.555168  6.360297  9.867229
 Ni  6.392675  8.248374  9.998909
 Ni  6.263261  6.343751  8.031604
 Ni  8.099009  8.147045  8.072075
 Ni  8.066476  6.329939  6.284233
 Ni  9.890625  8.063027  9.916137
 Ni 13.674793  4.522489 10.041177
 Ni 11.757490  6.360252  9.930247
 Ni  0.967963  9.961093  9.979845
 Ni  0.911998 11.780490  8.180890
 Ni  2.709047 11.789831  9.948589
 Ni  4.554894 10.079700  9.957220
 Ni  2.725405  9.992109  8.152140
 Ni  6.363054 13.607747  8.124992
 Ni  6.377520 10.071358  8.169792
 Ni  9.910958 11.834797  9.959246
 Ni 11.736086 11.780726  8.140858
 Ni  8.162716 11.820841  8.114291
 Ni  0.955200 13.608386  9.916744
 Ni  0.933692  0.982360  8.142356
 Ni  2.747221  0.950092  9.901729
 Ni  4.513330 13.589641  9.957201
 Ni  2.704157 13.582656  8.118751
 Ni  8.182382 13.669826  9.998714
 Ni  8.174817  0.921092  8.102304
 Ni  9.974711  0.966197  9.932872
 Ni 11.753259  0.857228  8.130298
 Ni  0.967396  2.665671 13.549295
 Ni  2.860366  4.536521 13.619337
 Ni  2.732248  2.738139  0.904936
 Ni  4.541184  4.535938 11.675290
 Ni  2.777234  2.709672 11.722106
 Ni  6.314650  2.689113 11.707663
 Ni 11.760171  2.696219 13.582335
 Ni  9.965313  2.766584 11.782267
 Ni  0.949958  6.373534 13.531921
 Ni  2.728611  8.194267 13.613929
 Ni  4.527366  8.205549 11.707226
 Ni  2.768813  6.367310 11.698817
 Ni  6.329654  8.156776 13.566091
 Ni  6.327918  6.350393 11.707239
 Ni  8.134506  6.272459 13.577760
 Ni 11.764565  6.340929 13.592159
 Ni 11.708132  8.187942 11.701483
 Ni  9.886156  6.244063 11.667140
 Ni  0.904203 10.056632 13.525713
 Ni  0.949182 11.816691 11.718242
 Ni  2.738517 11.794630 13.537537
 Ni  4.549381 11.807247 11.763283
 Ni  2.786511 10.021638 11.728327
 Ni  6.315480 11.767630 13.553395
 Ni  8.149132  9.899371 13.548529
 Ni  8.109581 11.741405 11.737373
 Ni  9.957284 11.756007 13.520878
 Ni 11.757769  9.988871 13.555541
 Ni 11.718317 11.765122 11.745873
 Ni  9.877741  9.930000 11.791927
 Ni  0.947358  0.915436 11.724875
 Ni  2.735572  0.904703 13.537072
 Ni  4.532244 13.592110 13.493615
 Ni  4.513034  0.888899 11.730573
 Ni  2.745656 13.597467 11.693238
 Ni  6.320189  0.938521 13.571259
 Ni  8.125174 13.556646 13.627820
 Ni  6.370941 13.637044 11.815776
 Ni  9.982188  0.929035 13.571364
 Ni 11.712354 13.570393 13.527868
 Ni 11.718495  0.884874 11.760729
 Ni  9.899467 13.568817 11.804984
 Ni  0.927486  2.707219  2.692235
 Ni  0.957388  4.520127  0.867743
 Ni  2.677502  4.549216  2.733600
 Ni  4.514715  2.726143  2.709910
 Ni  6.175246  4.554695 13.583827
 Ni  2.728853  0.935984  2.694184
 Ni  6.320992  4.574889  2.786247
 Ni  8.154228  2.751386  2.678299
 Ni  8.108323  2.819510 13.582621
 Ni  6.288195  2.766495  0.924243
 Ni  9.962058  6.253477  0.911471
 Ni 11.833444  2.717897  2.690938
 Ni 11.846788  4.521958  0.892168
 Ni  9.971709  2.750587  0.871614
 Ni  0.910960  6.313515  2.697374
 Ni  0.900528  8.171084  0.845716
 Ni  4.499931  9.884466  2.676958
 Ni  2.715995  6.329238  0.897044
 Ni  6.371907  9.955242  4.458359
 Ni  8.263455  6.228965  2.807776
 Ni  8.177509  8.119267  0.881406
 Ni  6.316926  6.369977  0.928524
 Ni 11.772723  4.536748  4.540048
 Ni 11.836829  8.155548  0.916995
 Ni 11.726884  6.344009  2.709168
 Ni  0.902893  9.963450  2.708101
 Ni  0.892646 11.947997  0.908729
 Ni  4.533736 11.676105  0.912046
 Ni  4.474932  8.140110  0.930851
 Ni  6.383074 11.739494  2.630878
 Ni  8.171206  9.977278  2.682183
 Ni  6.353288  9.897932  0.891528
 Ni 11.793854  9.970811  2.676103
 Ni 11.752708 11.760146  0.860100
 Ni  9.993000 10.003442  0.884121
 Ni  0.966901  0.816312  0.877929
 Ni  4.508198  0.986353  0.917934
 Ni  6.333713  0.938202  2.623082
 Ni  9.975354 13.562029  0.875643
 Ni 11.741586 13.572002  2.715532
 Ni 11.769868  0.934083  0.844429
%endblock positions_abs_intermediate 
     kpoint_mp_grid 1 1 1 
     fix_com : false