#######################################################
#CASTEP cell file: /home/u2093113/Documents/kART/CASTEP/castep.cell
#Created using the Atomic Simulation Environment (ASE)#
#######################################################

%BLOCK LATTICE_CART
14.464828  0.000000  0.000000
 0.000000 14.464828  0.000000
 0.000000  0.000000 14.464828
%ENDBLOCK LATTICE_CART

%BLOCK POSITIONS_ABS
Al 13.595261  0.907717  9.978830
Al 13.602135  4.524782  9.969123
Al 13.554091  8.032639  9.901208
Al 13.439400 11.821518 10.068262
Al 13.520188  0.906651 13.521763
Al 13.515290  4.540011 13.542244
Al 13.752568  8.120531 13.651705
Al 13.657585 11.734409 13.514333
Al 13.477955  0.785637  2.836548
Al 13.413667  4.530961  2.833476
Al 13.570968  8.254652  2.785115
Al 13.598120 11.760218  2.725019
Al 13.637660  0.860319  6.345294
Al 13.606580  4.504262  6.338765
Al 13.602107  8.196622  6.357819
Al 13.422117 11.766514  6.363713
Al 10.122516 13.595952  8.146718
Al  6.176050 11.741203  6.349042
Al  8.154407 13.637938  6.282386
Al  2.551300 13.458855 11.679589
Al  2.968430 11.731996  6.377810
Al  2.568325  8.254197  6.384546
Al  4.603242 13.528925  9.891588
Al  0.994249 11.853665  8.197007
Al 10.054204  9.962416  8.238734
Al  8.183445  9.874316  6.268734
Al  4.554524  6.467029  9.998327
Al  2.565542  6.253770  8.167883
Al 10.121283  2.604152  8.136773
Al  6.483706  6.301692  8.096922
Al  4.521731  2.758344  6.551134
Al  8.235919 13.602078  2.869207
Al  1.038932 11.754667  4.510030
Al  6.322471  8.170612  2.791844
Al  4.510685  8.144876  4.625252
Al 10.100922  6.310174  4.660679
Al  8.175819  6.243182  2.866648
Al  4.527030  4.644200  4.535824
Al  1.106398  6.418302  2.859083
Al 10.092125  2.703817  4.552909
Al  9.989814  6.386213  8.086991
Al  8.000558  4.580784  0.853142
Al  7.974557  2.640105  2.801210
Al  4.540751  0.839683  4.510488
Al  1.119355  2.695639  2.963972
Al  9.905589 11.770148 13.572660
Al 11.675332 11.760717  1.008759
Al  8.030553 11.697838 11.727677
Al  6.373801 13.544080  0.956372
Al  4.546768 13.441348 13.527327
Al 11.568166  8.167749  0.933645
Al  6.415950 10.152993  0.975749
Al  8.285487  8.137014  0.836988
Al  4.576960  9.986654 13.608858
Al 10.082042  4.644937 13.446613
Al  2.767189  4.416951 13.553675
Al  4.653047  6.491651 13.666725
Al  0.992945  4.505079  0.954891
Al 10.144840  2.574568  0.945423
Al  8.025755  2.556587 13.442961
Al  2.766707  1.053464 13.535435
Al  0.989256  0.846027  0.975394
Al  8.078714 13.644205  9.900454
Al 11.645449  8.146473 11.800924
Al  8.130737  8.169824 11.740685
Al  4.613215  9.824456  9.782383
Al  2.697641  9.946504 11.838597
Al  0.947682  9.865956  9.947155
Al  8.055015  2.622261 10.060631
Al  8.001665  2.735143  6.378116
Al 10.017674  4.552160 10.130401
Al  4.641563  4.381970 11.680914
Ni 13.596678  2.719292 11.776141
Ni 13.592493  6.403308 11.812783
Ni 13.574022  9.824747 11.784257
Ni 13.596639 13.579414 11.807961
Ni 11.816727  2.677332  2.749232
Ni 13.659866  6.298985  1.035318
Ni 13.574840  9.966408  0.936592
Ni 13.580532 13.519745  0.923987
Ni 13.620135  2.675207  4.520818
Ni 13.570653  6.376746  4.470200
Ni 13.586362 10.047912  4.540856
Ni 13.608162 13.470622  4.552255
Ni 13.591184  2.697096  8.170979
Ni 13.604544  6.297352  8.157133
Ni 13.596070 10.042873  8.243337
Ni 13.556816 13.517813  8.147050
Ni  0.946562  0.929624 11.768175
Ni  0.941128  2.712690  9.980676
Ni  2.733101  2.717111 11.715784
Ni  4.470754  0.814747 11.772053
Ni  4.497920  2.686253  9.914862
Ni  2.726713  0.880014  9.960207
Ni  6.284455  2.608171 11.751402
Ni  8.160990  0.824772 11.764766
Ni  6.289489  0.904541  9.931742
Ni  9.969344  2.696164 11.819637
Ni 11.731735  0.900838 11.781902
Ni  9.939246  6.380216 11.782531
Ni  9.973987  0.894588  9.985535
Ni  0.949334  4.524490 11.777730
Ni  0.935236  6.318058 10.035126
Ni  2.830273  6.292214 11.858351
Ni  6.357935  4.559017  9.938475
Ni  2.747262  4.550777  9.993413
Ni  6.324149  6.328346 11.768857
Ni  9.912021  8.169049 13.548625
Ni 11.829899  4.560907 11.760295
Ni 11.756158  6.340609  9.965195
Ni  8.193875  6.302362  9.966945
Ni  0.980845  8.105672 11.777124
Ni  4.550370  8.214708 11.766159
Ni  2.749399  8.112642  9.983631
Ni  6.339670  9.920911 11.729321
Ni  9.945919  8.139570  9.950712
Ni  8.171277  9.948747  9.907853
Ni  9.943633 10.009500 11.751023
Ni 11.822954  6.435432 13.631851
Ni 11.789307  9.927529 10.017033
Ni  0.894166 11.670819 11.711069
Ni  0.876603 13.564627  9.933039
Ni  2.777066 11.667334  9.968513
Ni  4.575960 11.718433 11.724170
Ni  2.690804  9.948056  8.157385
Ni  4.565709 11.702625  8.204966
Ni  6.357586 13.558559 11.729116
Ni  9.930478 11.818096  9.983024
Ni  6.403929 11.729090  9.884342
Ni  9.945598 13.531211 11.777473
Ni 11.747546 11.733945 11.798696
Ni 11.759599 13.583903 10.031930
Ni  8.179152 11.796545  8.070898
Ni  0.894616  2.717620 13.599023
Ni  2.739005  2.709293  0.974395
Ni  4.549355  0.861256  0.911711
Ni  4.578790  2.705249 13.590834
Ni  6.349475  2.699224  0.896758
Ni  8.179813  0.926055  0.917700
Ni  6.282770  0.810421 13.568517
Ni 11.829652  0.833787  0.931531
Ni 11.791467  2.707409 13.571154
Ni  9.972110  0.871292 13.580048
Ni  0.979766  6.259753 13.620488
Ni  2.771205  6.334121  0.922235
Ni  4.564931  4.546009  0.910322
Ni  6.408484  6.426544  1.016957
Ni  6.299856  4.531990 13.558144
Ni  8.109818  6.325887 13.549782
Ni  8.094881  4.512463 11.780605
Ni  9.903856  6.248388  0.923031
Ni 13.677547  2.689747  1.055438
Ni 11.764635  4.534436  0.935519
Ni  0.985771  8.136196  0.983461
Ni  0.936204  9.949552 13.638137
Ni  2.724491  9.962160  0.946530
Ni  4.562969  8.259249  0.968823
Ni  2.748712  8.157056 13.608980
Ni  6.367443 11.775172 13.582631
Ni  6.383424  8.234797 13.621136
Ni  9.915791 10.015701  0.958962
Ni 11.748670  9.962737 13.607713
Ni  8.166319  9.993964 13.575030
Ni  0.973515 11.780746  0.913130
Ni  0.952445 13.621482 13.606736
Ni  2.764167 13.586275  0.898553
Ni  4.523459 11.759423  0.950211
Ni  2.725376 11.751793 13.573537
Ni  8.183117 11.848226  0.998320
Ni  8.172497 13.568975 13.564877
Ni  9.978441 13.606557  0.933856
Ni 11.760118 13.498888 13.597546
Ni  0.978112  0.831903  4.555602
Ni  2.876522  2.713460  4.626999
Ni  2.739620  0.904127  6.370032
Ni  4.549342  2.713655  2.690293
Ni  2.789560  0.877524  2.730188
Ni  6.318644  0.860292  2.713100
Ni 11.770063  0.867353  4.583994
Ni  9.970968  0.937083  2.786567
Ni  0.958578  4.551918  4.542120
Ni  2.746468  6.384360  4.637986
Ni  4.536631  6.391968  2.727802
Ni  2.779480  4.548880  2.726415
Ni  6.334196  6.356911  4.582855
Ni  6.334362  4.534776  2.731776
Ni  8.142197  4.453652  4.578966
Ni 11.773493  4.513258  4.594524
Ni 11.719263  6.369409  2.700928
Ni  9.894429  4.424018  2.674259
Ni  0.908973  8.243636  4.536226
Ni  0.966523  9.994474  2.721806
Ni  2.755980  9.977110  4.557056
Ni  4.560444  9.986042  2.772423
Ni  2.799515  8.205780  2.745474
Ni  6.320664  9.945724  4.574192
Ni  8.171656  8.088654  4.547162
Ni  8.116270  9.922143  2.739535
Ni  9.973075  9.938839  4.518772
Ni 11.773854  8.174077  4.554592
Ni 11.732812  9.949139  2.743259
Ni  9.892541  8.115834  2.791408
Ni  0.962485 13.548946  2.726838
Ni  2.746862 13.535023  4.544488
Ni  4.542828 11.764747  4.500793
Ni  4.522976 13.520799  2.731797
Ni  2.759375 11.768885  2.695131
Ni  6.326018 13.569900  4.576370
Ni  8.132806 11.732338  4.628367
Ni  6.374729 11.807155  2.816097
Ni  9.989155 13.568424  4.572208
Ni 11.723386 11.750203  4.529511
Ni 11.727432 13.523125  2.760737
Ni  9.907167 11.748633  2.804380
Ni  0.940655  0.881882  8.160805
Ni  0.968408  2.695625  6.331030
Ni  2.682563  2.722073  8.188213
Ni  4.525863  0.897572  8.174033
Ni  6.176631  2.730483  4.589247
Ni  2.743976 13.573251  8.168110
Ni  6.328282  2.750115  8.210721
Ni  8.164518  0.923433  8.144213
Ni  8.114439  0.987820  4.585785
Ni  6.296927  0.934912  6.386686
Ni  9.981491  4.429966  6.365285
Ni 11.838695  0.893244  8.162477
Ni 11.856162  2.690338  6.358442
Ni  9.977835  0.923651  6.337453
Ni  0.900734  4.477656  8.155820
Ni  0.889247  6.350310  6.305634
Ni  4.460220  6.450939  6.497270
Ni  2.736756  4.523833  6.366193
Ni  6.394140  8.113345  9.898405
Ni  8.299710  4.410628  8.238650
Ni  8.204933  6.300629  6.325789
Ni  6.310755  4.564350  6.372096
Ni 11.780717  2.708869 10.010488
Ni 11.850387  6.335081  6.384031
Ni 11.732963  4.517268  8.176165
Ni  0.906856  8.142168  8.181562
Ni  0.897938 10.129931  6.380833
Ni  4.548723  9.783415  6.465986
Ni  4.525563  4.644301  8.250464
Ni  6.436284  9.921178  8.102415
Ni  8.193265  8.157719  8.142532
Ni  6.398597  8.086892  6.370283
Ni 11.806115  8.146657  8.145060
Ni 11.765232  9.942505  6.328033
Ni 10.013848  8.182871  6.349271
Ni  0.979670 13.448330  6.350353
Ni  4.515971 13.617377  6.388921
Ni  6.340256 13.572282  8.089542
Ni  9.987616 11.741623  6.342790
Ni 11.751339 11.754949  8.188542
Ni 11.778885 13.577027  6.313386
%ENDBLOCK POSITIONS_ABS

