#######################################################
#CASTEP cell file: /home/u2093113/Documents/kART/CASTEP/castep.cell
#Created using the Atomic Simulation Environment (ASE)#
#######################################################

%BLOCK LATTICE_CART
14.464828  0.000000  0.000000
 0.000000 14.464828  0.000000
 0.000000  0.000000 14.464828
%ENDBLOCK LATTICE_CART

%BLOCK POSITIONS_ABS
Al 13.592334  0.908235  9.976953
Al 13.602915  4.526767  9.965377
Al 13.554180  8.029246  9.899249
Al 13.438809 11.818001 10.067741
Al 13.516985  0.905407 13.518791
Al 13.514659  4.540784 13.540101
Al 13.753633  8.118846 13.648678
Al 13.654162 11.731592 13.510589
Al 13.472955  0.783397  2.834887
Al 13.409605  4.530984  2.833230
Al 13.566530  8.251632  2.785149
Al 13.593143 11.759346  2.724026
Al 13.633156  0.858482  6.345782
Al 13.603097  4.504488  6.338448
Al 13.599005  8.197058  6.357660
Al 13.417701 11.765774  6.365000
Al 10.118763 13.593075  8.147274
Al  6.179060 11.746070  6.345494
Al  8.152328 13.638903  6.282475
Al  2.546625 13.460538 11.680048
Al  2.957577 11.738061  6.374164
Al  2.549716  8.270075  6.373897
Al  4.599277 13.530758  9.891984
Al  0.993221 11.851336  8.199055
Al 10.046172  9.959352  8.239856
Al  8.175860  9.869782  6.270095
Al  4.548128  6.451341 10.005660
Al  2.586146  6.258948  8.146850
Al 10.118722  2.605109  8.136325
Al  6.462422  6.297692  8.084607
Al  4.520395  2.760231  6.547164
Al  8.234662 13.600447  2.866992
Al  1.031958 11.755717  4.505270
Al  6.317014  8.168604  2.793892
Al  4.514489  8.117847  4.642147
Al 10.096854  6.310614  4.661281
Al  8.177921  6.242182  2.862414
Al  4.526087  4.645898  4.543458
Al  1.107054  6.415981  2.869268
Al 10.092049  2.700808  4.551809
Al  9.984346  6.385347  8.085880
Al  7.999311  4.578416  0.851859
Al  7.975907  2.637887  2.797682
Al  4.538886  0.840056  4.508029
Al  1.112493  2.693949  2.965422
Al  9.903088 11.767625 13.569612
Al 11.671500 11.759461  1.003123
Al  8.023920 11.696581 11.726454
Al  6.370426 13.544225  0.955289
Al  4.542000 13.443881 13.529723
Al 11.566639  8.166152  0.929959
Al  6.411792 10.150913  0.976046
Al  8.282660  8.135545  0.835993
Al  4.572407  9.984778 13.614734
Al 10.080665  4.644293 13.443779
Al  2.760164  4.414742 13.557421
Al  4.648554  6.486401 13.673013
Al  0.988299  4.506278  0.960130
Al 10.144653  2.573727  0.942550
Al  8.023828  2.555517 13.441526
Al  2.760348  1.055285 13.535929
Al  0.982449  0.845447  0.974213
Al  8.074367 13.643973  9.900196
Al 11.642782  8.143198 11.796023
Al  8.121104  8.164853 11.738109
Al  4.612952  9.846532  9.806739
Al  2.689693  9.943173 11.841044
Al  0.952408  9.862953  9.944900
Al  8.050922  2.622620 10.059022
Al  8.000235  2.732220  6.376530
Al 10.014497  4.552624 10.127917
Al  4.635450  4.375808 11.684013
Ni 13.595334  2.720988 11.773108
Ni 13.594047  6.402536 11.809158
Ni 13.573514  9.821717 11.781334
Ni 13.594639 13.578304 11.805416
Ni 11.814778  2.676146  2.747060
Ni 13.655409  6.299943  1.035834
Ni 13.569030  9.963733  0.934604
Ni 13.576045 13.517587  0.920995
Ni 13.614418  2.672284  4.520929
Ni 13.566847  6.376926  4.472829
Ni 13.581121 10.047075  4.539738
Ni 13.603619 13.469726  4.551199
Ni 13.589948  2.698787  8.168565
Ni 13.602871  6.296927  8.154159
Ni 13.594541 10.042922  8.244611
Ni 13.553933 13.514668  8.148040
Ni  0.942313  0.930958 11.766359
Ni  0.938988  2.714161  9.976756
Ni  2.728087  2.717317 11.714719
Ni  4.465755  0.817853 11.771709
Ni  4.492763  2.687622  9.911310
Ni  2.722421  0.880662  9.958826
Ni  6.280267  2.608313 11.752071
Ni  8.158672  0.824118 11.763677
Ni  6.285761  0.905207  9.931510
Ni  9.967858  2.696837 11.816174
Ni 11.730161  0.901027 11.777854
Ni  9.934319  6.378947 11.779705
Ni  9.972284  0.894823  9.983770
Ni  0.947823  4.524968 11.773783
Ni  0.940566  6.314202 10.023638
Ni  2.828059  6.287009 11.858552
Ni  6.347062  4.557203  9.933051
Ni  2.746893  4.549907  9.983977
Ni  6.317442  6.322413 11.770720
Ni  9.907445  8.166956 13.545116
Ni 11.829044  4.561353 11.756805
Ni 11.753138  6.340546  9.963130
Ni  8.183220  6.297435  9.962149
Ni  0.985708  8.099761 11.768401
Ni  4.546080  8.208920 11.781016
Ni  2.755724  8.121717  9.980256
Ni  6.333797  9.920244 11.737031
Ni  9.937370  8.136069  9.948973
Ni  8.157075  9.944395  9.905320
Ni  9.937139 10.005397 11.747093
Ni 11.821600  6.435525 13.627747
Ni 11.785145  9.923705 10.015064
Ni  0.891253 11.669211 11.710019
Ni  0.873270 13.565195  9.931336
Ni  2.773001 11.669811  9.969088
Ni  4.570611 11.722077 11.728941
Ni  2.702299  9.945310  8.153079
Ni  4.561440 11.712944  8.198861
Ni  6.353825 13.560428 11.730207
Ni  9.921747 11.814701  9.981188
Ni  6.397761 11.730639  9.883692
Ni  9.942390 13.530447 11.773972
Ni 11.743313 11.731142 11.796082
Ni 11.756569 13.581830 10.030004
Ni  8.166448 11.786507  8.069042
Ni  0.889772  2.718060 13.598610
Ni  2.730853  2.709003  0.977003
Ni  4.544994  0.862354  0.912283
Ni  4.573992  2.705461 13.592689
Ni  6.347231  2.696828  0.896433
Ni  8.178585  0.924584  0.914938
Ni  6.279907  0.810512 13.569813
Ni 11.827674  0.832224  0.928510
Ni 11.790394  2.707602 13.567989
Ni  9.970540  0.870613 13.576918
Ni  0.977485  6.257713 13.622673
Ni  2.767165  6.331575  0.929757
Ni  4.560198  4.544287  0.915255
Ni  6.404804  6.423730  1.020118
Ni  6.296491  4.529115 13.560569
Ni  8.106251  6.323222 13.549475
Ni  8.089508  4.510852 11.777967
Ni  9.903322  6.248019  0.920749
Ni 13.674535  2.690096  1.054678
Ni 11.764229  4.535285  0.932459
Ni  0.981843  8.133375  0.987606
Ni  0.932228  9.947338 13.639947
Ni  2.720846  9.959098  0.948706
Ni  4.559360  8.254893  0.973255
Ni  2.742823  8.150792 13.613371
Ni  6.363173 11.775167 13.584020
Ni  6.380606  8.231336 13.625973
Ni  9.913607 10.014577  0.956168
Ni 11.744668  9.959570 13.603223
Ni  8.162225  9.991675 13.574868
Ni  0.968491 11.779216  0.911808
Ni  0.948092 13.620834 13.605668
Ni  2.758807 13.586283  0.898624
Ni  4.519888 11.759003  0.950951
Ni  2.720271 11.750725 13.575366
Ni  8.180140 11.846564  0.995826
Ni  8.169242 13.568197 13.562317
Ni  9.976279 13.604233  0.929968
Ni 11.757817 13.496817 13.593465
Ni  0.971490  0.829098  4.555386
Ni  2.869812  2.712138  4.626182
Ni  2.736786  0.902348  6.367442
Ni  4.544853  2.713794  2.691585
Ni  2.783773  0.876605  2.730423
Ni  6.316988  0.860116  2.711664
Ni 11.766192  0.864359  4.583981
Ni  9.970735  0.933834  2.783490
Ni  0.951361  4.548007  4.545524
Ni  2.749183  6.387440  4.654543
Ni  4.533641  6.387982  2.743232
Ni  2.774320  4.546564  2.735322
Ni  6.345248  6.346495  4.575721
Ni  6.334601  4.530511  2.730139
Ni  8.147391  4.449947  4.573474
Ni 11.770063  4.512639  4.595169
Ni 11.715769  6.369975  2.701061
Ni  9.896388  4.422898  2.670386
Ni  0.902898  8.244379  4.533362
Ni  0.959438  9.993447  2.719650
Ni  2.748655  9.978395  4.547619
Ni  4.557169  9.983557  2.774788
Ni  2.797274  8.203343  2.750540
Ni  6.322289  9.943152  4.569034
Ni  8.170108  8.088315  4.543730
Ni  8.114010  9.920570  2.737251
Ni  9.968956  9.938463  4.518646
Ni 11.769797  8.174535  4.554821
Ni 11.728716  9.948396  2.742676
Ni  9.892209  8.117257  2.789108
Ni  0.956629 13.548936  2.724741
Ni  2.742377 13.535895  4.541770
Ni  4.539123 11.765557  4.500721
Ni  4.519146 13.521822  2.731518
Ni  2.754918 11.768983  2.692711
Ni  6.325447 13.570139  4.573254
Ni  8.131455 11.731847  4.627631
Ni  6.372747 11.806103  2.816104
Ni  9.986167 13.566498  4.571857
Ni 11.718950 11.749383  4.529611
Ni 11.723444 13.519860  2.758563
Ni  9.904414 11.746288  2.801979
Ni  0.936451  0.879488  8.159544
Ni  0.960275  2.688662  6.329688
Ni  2.678976  2.719447  8.182248
Ni  4.523193  0.897107  8.171456
Ni  6.178874  2.729666  4.585200
Ni  2.739493 13.576007  8.166550
Ni  6.324446  2.749099  8.209117
Ni  8.161053  0.925073  8.144028
Ni  8.114025  0.986250  4.583217
Ni  6.294871  0.935135  6.384896
Ni  9.978317  4.429620  6.365246
Ni 11.836314  0.892324  8.162611
Ni 11.852613  2.689830  6.358156
Ni  9.976381  0.921947  6.337733
Ni  0.905296  4.480590  8.149044
Ni  0.895068  6.350784  6.306121
Ni  4.478506  7.213798  7.267240
Ni  2.727418  4.516010  6.359817
Ni  6.383090  8.113701  9.900358
Ni  8.292678  4.408239  8.237025
Ni  8.195100  6.298974  6.324160
Ni  6.318563  4.557520  6.363660
Ni 11.779884  2.710601 10.007862
Ni 11.846448  6.335137  6.384120
Ni 11.731017  4.517668  8.174126
Ni  0.900631  8.140789  8.179539
Ni  0.889439 10.137262  6.379904
Ni  4.543126  9.810752  6.421766
Ni  4.521409  4.647667  8.225642
Ni  6.411908  9.913201  8.094993
Ni  8.184268  8.152661  8.141294
Ni  6.392967  8.083185  6.356289
Ni 11.802470  8.146534  8.145233
Ni 11.760969  9.941303  6.329378
Ni 10.009283  8.182186  6.349258
Ni  0.974305 13.445839  6.350115
Ni  4.513661 13.617670  6.386106
Ni  6.338353 13.575134  8.089239
Ni  9.983207 11.740439  6.345002
Ni 11.746778 11.750708  8.189482
Ni 11.774791 13.575518  6.314756
%ENDBLOCK POSITIONS_ABS

