#######################################################
#CASTEP cell file: /home/u2093113/Documents/kART/CASTEP/castep.cell
#Created using the Atomic Simulation Environment (ASE)#
#######################################################

%BLOCK LATTICE_CART
14.464828  0.000000  0.000000
 0.000000 14.464828  0.000000
 0.000000  0.000000 14.464828
%ENDBLOCK LATTICE_CART

%BLOCK POSITIONS_ABS
Al 13.589408  0.908753  9.975076
Al 13.603696  4.528751  9.961631
Al 13.554269  8.025852  9.897289
Al 13.438219 11.814483 10.067221
Al 13.513782  0.904162 13.515819
Al 13.514029  4.541556 13.537959
Al 13.754699  8.117160 13.645652
Al 13.650739 11.728775 13.506845
Al 13.467955  0.781158  2.833226
Al 13.405542  4.531007  2.832985
Al 13.562093  8.248611  2.785184
Al 13.588166 11.758474  2.723033
Al 13.628651  0.856646  6.346269
Al 13.599614  4.504714  6.338130
Al 13.595904  8.197494  6.357500
Al 13.413286 11.765033  6.366286
Al 10.115009 13.590197  8.147830
Al  6.182070 11.750937  6.341946
Al  8.150250 13.639868  6.282563
Al  2.541950 13.462220 11.680508
Al  2.946724 11.744126  6.370518
Al  2.531106  8.285953  6.363248
Al  4.595312 13.532592  9.892380
Al  0.992192 11.849007  8.201102
Al 10.038140  9.956289  8.240978
Al  8.168274  9.865249  6.271455
Al  4.541731  6.435653 10.012993
Al  2.606750  6.264126  8.125817
Al 10.116162  2.606067  8.135876
Al  6.441137  6.293692  8.072293
Al  4.519058  2.762119  6.543194
Al  8.233404 13.598816  2.864777
Al  1.024984 11.756768  4.500510
Al  6.311556  8.166597  2.795939
Al  4.518293  8.090818  4.659042
Al 10.092787  6.311054  4.661883
Al  8.180022  6.241183  2.858179
Al  4.525144  4.647595  4.551092
Al  1.107709  6.413660  2.879452
Al 10.091974  2.697799  4.550710
Al  9.978878  6.384481  8.084769
Al  7.998064  4.576048  0.850575
Al  7.977257  2.635669  2.794154
Al  4.537020  0.840429  4.505570
Al  1.105631  2.692259  2.966871
Al  9.900586 11.765102 13.566564
Al 11.667668 11.758204  0.997486
Al  8.017287 11.695323 11.725232
Al  6.367051 13.544371  0.954206
Al  4.537232 13.446415 13.532120
Al 11.565112  8.164555  0.926273
Al  6.407635 10.148832  0.976344
Al  8.279833  8.134076  0.834999
Al  4.567853  9.982901 13.620610
Al 10.079289  4.643650 13.440946
Al  2.753138  4.412532 13.561168
Al  4.644061  6.481151 13.679301
Al  0.983653  4.507478  0.965368
Al 10.144467  2.572886  0.939676
Al  8.021901  2.554446 13.440091
Al  2.753990  1.057106 13.536423
Al  0.975642  0.844866  0.973031
Al  8.070019 13.643741  9.899939
Al 11.640116  8.139924 11.791123
Al  8.111471  8.159883 11.735533
Al  4.612689  9.868607  9.831095
Al  2.681744  9.939841 11.843491
Al  0.957133  9.859949  9.942645
Al  8.046830  2.622979 10.057413
Al  7.998805  2.729298  6.374943
Al 10.011320  4.553089 10.125432
Al  4.629337  4.369646 11.687112
Ni 13.593990  2.722683 11.770075
Ni 13.595601  6.401763 11.805532
Ni 13.573007  9.818688 11.778410
Ni 13.592638 13.577195 11.802872
Ni 11.812830  2.674960  2.744889
Ni 13.650953  6.300901  1.036351
Ni 13.563220  9.961057  0.932615
Ni 13.571557 13.515430  0.918003
Ni 13.608700  2.669361  4.521039
Ni 13.563040  6.377107  4.475458
Ni 13.575879 10.046238  4.538620
Ni 13.599076 13.468831  4.550143
Ni 13.588711  2.700479  8.166150
Ni 13.601197  6.296501  8.151185
Ni 13.593013 10.042971  8.245884
Ni 13.551051 13.511523  8.149029
Ni  0.938064  0.932292 11.764544
Ni  0.936847  2.715633  9.972836
Ni  2.723074  2.717523 11.713655
Ni  4.460757  0.820958 11.771366
Ni  4.487607  2.688991  9.907757
Ni  2.718129  0.881310  9.957446
Ni  6.276078  2.608454 11.752740
Ni  8.156353  0.823465 11.762589
Ni  6.282033  0.905873  9.931279
Ni  9.966372  2.697509 11.812710
Ni 11.728586  0.901216 11.773806
Ni  9.929393  6.377679 11.776880
Ni  9.970582  0.895057  9.982005
Ni  0.946311  4.525446 11.769836
Ni  0.945896  6.310347 10.012150
Ni  2.825846  6.281804 11.858752
Ni  6.336190  4.555389  9.927627
Ni  2.746523  4.549037  9.974541
Ni  6.310735  6.316479 11.772583
Ni  9.902869  8.164862 13.541608
Ni 11.828189  4.561799 11.753316
Ni 11.750118  6.340482  9.961066
Ni  8.172565  6.292508  9.957353
Ni  0.990572  8.093849 11.759679
Ni  4.541790  8.203132 11.795873
Ni  2.762050  8.130792  9.976881
Ni  6.327923  9.919577 11.744740
Ni  9.928820  8.132567  9.947235
Ni  8.142873  9.940042  9.902786
Ni  9.930644 10.001293 11.743164
Ni 11.820246  6.435619 13.623644
Ni 11.780983  9.919882 10.013095
Ni  0.888339 11.667604 11.708969
Ni  0.869938 13.565763  9.929633
Ni  2.768936 11.672288  9.969664
Ni  4.565262 11.725721 11.733712
Ni  2.713794  9.942565  8.148773
Ni  4.557171 11.723264  8.192757
Ni  6.350064 13.562298 11.731297
Ni  9.913016 11.811306  9.979352
Ni  6.391594 11.732187  9.883043
Ni  9.939182 13.529683 11.770471
Ni 11.739079 11.728339 11.793468
Ni 11.753539 13.579756 10.028078
Ni  8.153743 11.776470  8.067186
Ni  0.884928  2.718501 13.598197
Ni  2.722701  2.708712  0.979611
Ni  4.540633  0.863452  0.912855
Ni  4.569195  2.705674 13.594545
Ni  6.344986  2.694431  0.896107
Ni  8.177357  0.923114  0.912175
Ni  6.277044  0.810604 13.571109
Ni 11.825696  0.830661  0.925490
Ni 11.789321  2.707796 13.564823
Ni  9.968971  0.869934 13.573788
Ni  0.975203  6.255673 13.624857
Ni  2.763126  6.329028  0.937278
Ni  4.555464  4.542564  0.920187
Ni  6.401125  6.420917  1.023280
Ni  6.293125  4.526241 13.562993
Ni  8.102684  6.320557 13.549169
Ni  8.084136  4.509241 11.775328
Ni  9.902788  6.247649  0.918466
Ni 13.671522  2.690444  1.053918
Ni 11.763823  4.536135  0.929399
Ni  0.977915  8.130554  0.991750
Ni  0.928252  9.945125 13.641757
Ni  2.717201  9.956035  0.950882
Ni  4.555751  8.250537  0.977688
Ni  2.736934  8.144529 13.617761
Ni  6.358903 11.775161 13.585409
Ni  6.377788  8.227875 13.630810
Ni  9.911422 10.013453  0.953373
Ni 11.740666  9.956404 13.598733
Ni  8.158132  9.989385 13.574706
Ni  0.963468 11.777686  0.910485
Ni  0.943739 13.620186 13.604600
Ni  2.753448 13.586291  0.898694
Ni  4.516317 11.758582  0.951691
Ni  2.715166 11.749657 13.577194
Ni  8.177163 11.844901  0.993332
Ni  8.165988 13.567420 13.559756
Ni  9.974116 13.601908  0.926079
Ni 11.755516 13.494745 13.589384
Ni  0.964868  0.826292  4.555169
Ni  2.863102  2.710816  4.625366
Ni  2.733952  0.900568  6.364853
Ni  4.540365  2.713933  2.692878
Ni  2.777986  0.875687  2.730658
Ni  6.315331  0.859939  2.710227
Ni 11.762321  0.861364  4.583969
Ni  9.970501  0.930585  2.780412
Ni  0.944143  4.544097  4.548928
Ni  2.751897  6.390520  4.671100
Ni  4.530651  6.383996  2.758662
Ni  2.769159  4.544248  2.744228
Ni  6.356299  6.336079  4.568586
Ni  6.334840  4.526246  2.728502
Ni  8.152584  4.446242  4.567981
Ni 11.766633  4.512021  4.595815
Ni 11.712274  6.370541  2.701193
Ni  9.898347  4.421778  2.666513
Ni  0.896823  8.245123  4.530498
Ni  0.952352  9.992419  2.717494
Ni  2.741330  9.979680  4.538182
Ni  4.553893  9.981073  2.777154
Ni  2.795033  8.200906  2.755607
Ni  6.323914  9.940579  4.563877
Ni  8.168561  8.087976  4.540297
Ni  8.111750  9.918997  2.734967
Ni  9.964837  9.938088  4.518519
Ni 11.765740  8.174992  4.555049
Ni 11.724621  9.947652  2.742092
Ni  9.891877  8.118681  2.786808
Ni  0.950774 13.548925  2.722643
Ni  2.737891 13.536767  4.539052
Ni  4.535418 11.766366  4.500650
Ni  4.515315 13.522845  2.731239
Ni  2.750460 11.769080  2.690292
Ni  6.324876 13.570378  4.570137
Ni  8.130103 11.731356  4.626895
Ni  6.370764 11.805050  2.816111
Ni  9.983179 13.564572  4.571505
Ni 11.714514 11.748564  4.529710
Ni 11.719457 13.516595  2.756389
Ni  9.901661 11.743944  2.799579
Ni  0.932247  0.877095  8.158284
Ni  0.952142  2.681700  6.328346
Ni  2.675389  2.716822  8.176284
Ni  4.520522  0.896643  8.168878
Ni  6.181116  2.728848  4.581153
Ni  2.735010 13.578762  8.164989
Ni  6.320611  2.748083  8.207513
Ni  8.157589  0.926713  8.143843
Ni  8.113612  0.984679  4.580648
Ni  6.292816  0.935358  6.383105
Ni  9.975144  4.429274  6.365206
Ni 11.833934  0.891404  8.162746
Ni 11.849063  2.689323  6.357871
Ni  9.974927  0.920242  6.338013
Ni  0.909857  4.483525  8.142267
Ni  0.900889  6.351257  6.306608
Ni  4.496792  7.976657  8.037210
Ni  2.718079  4.508187  6.353441
Ni  6.372040  8.114057  9.902311
Ni  8.285647  4.405851  8.235399
Ni  8.185266  6.297320  6.322530
Ni  6.326371  4.550691  6.355225
Ni 11.779052  2.712333 10.005236
Ni 11.842510  6.335193  6.384209
Ni 11.729071  4.518068  8.172086
Ni  0.894406  8.139411  8.177516
Ni  0.880941 10.144593  6.378974
Ni  4.537529  9.838089  6.377546
Ni  4.517256  4.651032  8.200820
Ni  6.387532  9.905224  8.087571
Ni  8.175270  8.147603  8.140055
Ni  6.387337  8.079478  6.342295
Ni 11.798825  8.146411  8.145407
Ni 11.756705  9.940101  6.330724
Ni 10.004718  8.181500  6.349245
Ni  0.968939 13.443349  6.349876
Ni  4.511351 13.617963  6.383290
Ni  6.336449 13.577986  8.088937
Ni  9.978797 11.739255  6.347214
Ni 11.742217 11.746467  8.190422
Ni 11.770698 13.574008  6.316126
%ENDBLOCK POSITIONS_ABS

