%block lattice_abc 
  14.46482773 14.46482773 14.46482773 #lattice params 
 90.0  90.0  90.0 
     %endblock lattice_abc 
     fix_all_cell : true 
     %BLOCK POSITIONS_ABS 
Al 13.595261  0.907717  9.978830
 Al 13.602135  4.524782  9.969123
 Al 13.554091  8.032639  9.901208
 Al 13.439400 11.821518 10.068262
 Al 13.520188  0.906651 13.521763
 Al 13.515290  4.540011 13.542244
 Al 13.752568  8.120531 13.651705
 Al 13.657585 11.734409 13.514333
 Al 13.477955  0.785637  2.836548
 Al 13.413667  4.530961  2.833476
 Al 13.570968  8.254652  2.785115
 Al 13.598120 11.760218  2.725019
 Al 13.637660  0.860319  6.345294
 Al 13.606580  4.504262  6.338765
 Al 13.602107  8.196622  6.357819
 Al 13.422117 11.766514  6.363713
 Al 10.122516 13.595952  8.146718
 Al  6.176050 11.741203  6.349042
 Al  8.154407 13.637938  6.282386
 Al  2.551300 13.458855 11.679589
 Al  2.968430 11.731996  6.377810
 Al  2.568325  8.254197  6.384546
 Al  4.603242 13.528925  9.891588
 Al  0.994249 11.853665  8.197007
 Al 10.054204  9.962416  8.238734
 Al  8.183445  9.874316  6.268734
 Al  4.554524  6.467029  9.998327
 Al  2.565542  6.253770  8.167883
 Al 10.121283  2.604152  8.136773
 Al  6.483706  6.301692  8.096922
 Al  4.521731  2.758344  6.551134
 Al  8.235919 13.602078  2.869207
 Al  1.038932 11.754667  4.510030
 Al  6.322471  8.170612  2.791844
 Al  4.510685  8.144876  4.625252
 Al 10.100922  6.310174  4.660679
 Al  8.175819  6.243182  2.866648
 Al  4.527030  4.644200  4.535824
 Al  1.106398  6.418302  2.859083
 Al 10.092125  2.703817  4.552909
 Al  9.989814  6.386213  8.086991
 Al  8.000558  4.580784  0.853142
 Al  7.974557  2.640105  2.801210
 Al  4.540751  0.839683  4.510488
 Al  1.119355  2.695639  2.963972
 Al  9.905589 11.770148 13.572660
 Al 11.675332 11.760717  1.008759
 Al  8.030553 11.697838 11.727677
 Al  6.373801 13.544080  0.956372
 Al  4.546768 13.441348 13.527327
 Al 11.568166  8.167749  0.933645
 Al  6.415950 10.152993  0.975749
 Al  8.285487  8.137014  0.836988
 Al  4.576960  9.986654 13.608858
 Al 10.082042  4.644937 13.446613
 Al  2.767189  4.416951 13.553675
 Al  4.653047  6.491651 13.666725
 Al  0.992945  4.505079  0.954891
 Al 10.144840  2.574568  0.945423
 Al  8.025755  2.556587 13.442961
 Al  2.766707  1.053464 13.535435
 Al  0.989256  0.846027  0.975394
 Al  8.078714 13.644205  9.900454
 Al 11.645449  8.146473 11.800924
 Al  8.130737  8.169824 11.740685
 Al  4.613215  9.824456  9.782383
 Al  2.697641  9.946504 11.838597
 Al  0.947682  9.865956  9.947155
 Al  8.055015  2.622261 10.060631
 Al  8.001665  2.735143  6.378116
 Al 10.017674  4.552160 10.130401
 Al  4.641563  4.381970 11.680914
 Ni 13.596678  2.719292 11.776141
 Ni 13.592493  6.403308 11.812783
 Ni 13.574022  9.824747 11.784257
 Ni 13.596639 13.579414 11.807961
 Ni 11.816727  2.677332  2.749232
 Ni 13.659866  6.298985  1.035318
 Ni 13.574840  9.966408  0.936592
 Ni 13.580532 13.519745  0.923987
 Ni 13.620135  2.675207  4.520818
 Ni 13.570653  6.376746  4.470200
 Ni 13.586362 10.047912  4.540856
 Ni 13.608162 13.470622  4.552255
 Ni 13.591184  2.697096  8.170979
 Ni 13.604544  6.297352  8.157133
 Ni 13.596070 10.042873  8.243337
 Ni 13.556816 13.517813  8.147050
 Ni  0.946562  0.929624 11.768175
 Ni  0.941128  2.712690  9.980676
 Ni  2.733101  2.717111 11.715784
 Ni  4.470754  0.814747 11.772053
 Ni  4.497920  2.686253  9.914862
 Ni  2.726713  0.880014  9.960207
 Ni  6.284455  2.608171 11.751402
 Ni  8.160990  0.824772 11.764766
 Ni  6.289489  0.904541  9.931742
 Ni  9.969344  2.696164 11.819637
 Ni 11.731735  0.900838 11.781902
 Ni  9.939246  6.380216 11.782531
 Ni  9.973987  0.894588  9.985535
 Ni  0.949334  4.524490 11.777730
 Ni  0.935236  6.318058 10.035126
 Ni  2.830273  6.292214 11.858351
 Ni  6.357935  4.559017  9.938475
 Ni  2.747262  4.550777  9.993413
 Ni  6.324149  6.328346 11.768857
 Ni  9.912021  8.169049 13.548625
 Ni 11.829899  4.560907 11.760295
 Ni 11.756158  6.340609  9.965195
 Ni  8.193875  6.302362  9.966945
 Ni  0.980845  8.105672 11.777124
 Ni  4.550370  8.214708 11.766159
 Ni  2.749399  8.112642  9.983631
 Ni  6.339670  9.920911 11.729321
 Ni  9.945919  8.139570  9.950712
 Ni  8.171277  9.948747  9.907853
 Ni  9.943633 10.009500 11.751023
 Ni 11.822954  6.435432 13.631851
 Ni 11.789307  9.927529 10.017033
 Ni  0.894166 11.670819 11.711069
 Ni  0.876603 13.564627  9.933039
 Ni  2.777066 11.667334  9.968513
 Ni  4.575960 11.718433 11.724170
 Ni  2.690804  9.948056  8.157385
 Ni  4.565709 11.702625  8.204966
 Ni  6.357586 13.558559 11.729116
 Ni  9.930478 11.818096  9.983024
 Ni  6.403929 11.729090  9.884342
 Ni  9.945598 13.531211 11.777473
 Ni 11.747546 11.733945 11.798696
 Ni 11.759599 13.583903 10.031930
 Ni  8.179152 11.796545  8.070898
 Ni  0.894616  2.717620 13.599023
 Ni  2.739005  2.709293  0.974395
 Ni  4.549355  0.861256  0.911711
 Ni  4.578790  2.705249 13.590834
 Ni  6.349475  2.699224  0.896758
 Ni  8.179813  0.926055  0.917700
 Ni  6.282770  0.810421 13.568517
 Ni 11.829652  0.833787  0.931531
 Ni 11.791467  2.707409 13.571154
 Ni  9.972110  0.871292 13.580048
 Ni  0.979766  6.259753 13.620488
 Ni  2.771205  6.334121  0.922235
 Ni  4.564931  4.546009  0.910322
 Ni  6.408484  6.426544  1.016957
 Ni  6.299856  4.531990 13.558144
 Ni  8.109818  6.325887 13.549782
 Ni  8.094881  4.512463 11.780605
 Ni  9.903856  6.248388  0.923031
 Ni 13.677547  2.689747  1.055438
 Ni 11.764635  4.534436  0.935519
 Ni  0.985771  8.136196  0.983461
 Ni  0.936204  9.949552 13.638137
 Ni  2.724491  9.962160  0.946530
 Ni  4.562969  8.259249  0.968823
 Ni  2.748712  8.157056 13.608980
 Ni  6.367443 11.775172 13.582631
 Ni  6.383424  8.234797 13.621136
 Ni  9.915791 10.015701  0.958962
 Ni 11.748670  9.962737 13.607713
 Ni  8.166319  9.993964 13.575030
 Ni  0.973515 11.780746  0.913130
 Ni  0.952445 13.621482 13.606736
 Ni  2.764167 13.586275  0.898553
 Ni  4.523459 11.759423  0.950211
 Ni  2.725376 11.751793 13.573537
 Ni  8.183117 11.848226  0.998320
 Ni  8.172497 13.568975 13.564877
 Ni  9.978441 13.606557  0.933856
 Ni 11.760118 13.498888 13.597546
 Ni  0.978112  0.831903  4.555602
 Ni  2.876522  2.713460  4.626999
 Ni  2.739620  0.904127  6.370032
 Ni  4.549342  2.713655  2.690293
 Ni  2.789560  0.877524  2.730188
 Ni  6.318644  0.860292  2.713100
 Ni 11.770063  0.867353  4.583994
 Ni  9.970968  0.937083  2.786567
 Ni  0.958578  4.551918  4.542120
 Ni  2.746468  6.384360  4.637986
 Ni  4.536631  6.391968  2.727802
 Ni  2.779480  4.548880  2.726415
 Ni  6.334196  6.356911  4.582855
 Ni  6.334362  4.534776  2.731776
 Ni  8.142197  4.453652  4.578966
 Ni 11.773493  4.513258  4.594524
 Ni 11.719263  6.369409  2.700928
 Ni  9.894429  4.424018  2.674259
 Ni  0.908973  8.243636  4.536226
 Ni  0.966523  9.994474  2.721806
 Ni  2.755980  9.977110  4.557056
 Ni  4.560444  9.986042  2.772423
 Ni  2.799515  8.205780  2.745474
 Ni  6.320664  9.945724  4.574192
 Ni  8.171656  8.088654  4.547162
 Ni  8.116270  9.922143  2.739535
 Ni  9.973075  9.938839  4.518772
 Ni 11.773854  8.174077  4.554592
 Ni 11.732812  9.949139  2.743259
 Ni  9.892541  8.115834  2.791408
 Ni  0.962485 13.548946  2.726838
 Ni  2.746862 13.535023  4.544488
 Ni  4.542828 11.764747  4.500793
 Ni  4.522976 13.520799  2.731797
 Ni  2.759375 11.768885  2.695131
 Ni  6.326018 13.569900  4.576370
 Ni  8.132806 11.732338  4.628367
 Ni  6.374729 11.807155  2.816097
 Ni  9.989155 13.568424  4.572208
 Ni 11.723386 11.750203  4.529511
 Ni 11.727432 13.523125  2.760737
 Ni  9.907167 11.748633  2.804380
 Ni  0.940655  0.881882  8.160805
 Ni  0.968408  2.695625  6.331030
 Ni  2.682563  2.722073  8.188213
 Ni  4.525863  0.897572  8.174033
 Ni  6.176631  2.730483  4.589247
 Ni  2.743976 13.573251  8.168110
 Ni  6.328282  2.750115  8.210721
 Ni  8.164518  0.923433  8.144213
 Ni  8.114439  0.987820  4.585785
 Ni  6.296927  0.934912  6.386686
 Ni  9.981491  4.429966  6.365285
 Ni 11.838695  0.893244  8.162477
 Ni 11.856162  2.690338  6.358442
 Ni  9.977835  0.923651  6.337453
 Ni  0.900734  4.477656  8.155820
 Ni  0.889247  6.350310  6.305634
 Ni  4.460220  6.450939  6.497270
 Ni  2.736756  4.523833  6.366193
 Ni  6.394140  8.113345  9.898405
 Ni  8.299710  4.410628  8.238650
 Ni  8.204933  6.300629  6.325789
 Ni  6.310755  4.564350  6.372096
 Ni 11.780717  2.708869 10.010488
 Ni 11.850387  6.335081  6.384031
 Ni 11.732963  4.517268  8.176165
 Ni  0.906856  8.142168  8.181562
 Ni  0.897938 10.129931  6.380833
 Ni  4.548723  9.783415  6.465986
 Ni  4.525563  4.644301  8.250464
 Ni  6.436284  9.921178  8.102415
 Ni  8.193265  8.157719  8.142532
 Ni  6.398597  8.086892  6.370283
 Ni 11.806115  8.146657  8.145060
 Ni 11.765232  9.942505  6.328033
 Ni 10.013848  8.182871  6.349271
 Ni  0.979670 13.448330  6.350353
 Ni  4.515971 13.617377  6.388921
 Ni  6.340256 13.572282  8.089542
 Ni  9.987616 11.741623  6.342790
 Ni 11.751339 11.754949  8.188542
 Ni 11.778885 13.577027  6.313386
 %ENDBLOCK POSITIONS_ABS
 
%block positions_abs_product 
     ang 
Al 13.589408  0.908753  9.975076
 Al 13.603696  4.528751  9.961631
 Al 13.554269  8.025852  9.897289
 Al 13.438219 11.814483 10.067221
 Al 13.513782  0.904162 13.515819
 Al 13.514029  4.541556 13.537959
 Al 13.754699  8.117160 13.645652
 Al 13.650739 11.728775 13.506845
 Al 13.467955  0.781158  2.833226
 Al 13.405542  4.531007  2.832985
 Al 13.562093  8.248611  2.785184
 Al 13.588166 11.758474  2.723033
 Al 13.628651  0.856646  6.346269
 Al 13.599614  4.504714  6.338130
 Al 13.595904  8.197494  6.357500
 Al 13.413286 11.765033  6.366286
 Al 10.115009 13.590197  8.147830
 Al  6.182070 11.750937  6.341946
 Al  8.150250 13.639868  6.282563
 Al  2.541950 13.462220 11.680508
 Al  2.946724 11.744126  6.370518
 Al  2.531106  8.285953  6.363248
 Al  4.595312 13.532592  9.892380
 Al  0.992192 11.849007  8.201102
 Al 10.038140  9.956289  8.240978
 Al  8.168274  9.865249  6.271455
 Al  4.541731  6.435653 10.012993
 Al  2.606750  6.264126  8.125817
 Al 10.116162  2.606067  8.135876
 Al  6.441137  6.293692  8.072293
 Al  4.519058  2.762119  6.543194
 Al  8.233404 13.598816  2.864777
 Al  1.024984 11.756768  4.500510
 Al  6.311556  8.166597  2.795939
 Al  4.518293  8.090818  4.659042
 Al 10.092787  6.311054  4.661883
 Al  8.180022  6.241183  2.858179
 Al  4.525144  4.647595  4.551092
 Al  1.107709  6.413660  2.879452
 Al 10.091974  2.697799  4.550710
 Al  9.978878  6.384481  8.084769
 Al  7.998064  4.576048  0.850575
 Al  7.977257  2.635669  2.794154
 Al  4.537020  0.840429  4.505570
 Al  1.105631  2.692259  2.966871
 Al  9.900586 11.765102 13.566564
 Al 11.667668 11.758204  0.997486
 Al  8.017287 11.695323 11.725232
 Al  6.367051 13.544371  0.954206
 Al  4.537232 13.446415 13.532120
 Al 11.565112  8.164555  0.926273
 Al  6.407635 10.148832  0.976344
 Al  8.279833  8.134076  0.834999
 Al  4.567853  9.982901 13.620610
 Al 10.079289  4.643650 13.440946
 Al  2.753138  4.412532 13.561168
 Al  4.644061  6.481151 13.679301
 Al  0.983653  4.507478  0.965368
 Al 10.144467  2.572886  0.939676
 Al  8.021901  2.554446 13.440091
 Al  2.753990  1.057106 13.536423
 Al  0.975642  0.844866  0.973031
 Al  8.070019 13.643741  9.899939
 Al 11.640116  8.139924 11.791123
 Al  8.111471  8.159883 11.735533
 Al  4.612689  9.868607  9.831095
 Al  2.681744  9.939841 11.843491
 Al  0.957133  9.859949  9.942645
 Al  8.046830  2.622979 10.057413
 Al  7.998805  2.729298  6.374943
 Al 10.011320  4.553089 10.125432
 Al  4.629337  4.369646 11.687112
 Ni 13.593990  2.722683 11.770075
 Ni 13.595601  6.401763 11.805532
 Ni 13.573007  9.818688 11.778410
 Ni 13.592638 13.577195 11.802872
 Ni 11.812830  2.674960  2.744889
 Ni 13.650953  6.300901  1.036351
 Ni 13.563220  9.961057  0.932615
 Ni 13.571557 13.515430  0.918003
 Ni 13.608700  2.669361  4.521039
 Ni 13.563040  6.377107  4.475458
 Ni 13.575879 10.046238  4.538620
 Ni 13.599076 13.468831  4.550143
 Ni 13.588711  2.700479  8.166150
 Ni 13.601197  6.296501  8.151185
 Ni 13.593013 10.042971  8.245884
 Ni 13.551051 13.511523  8.149029
 Ni  0.938064  0.932292 11.764544
 Ni  0.936847  2.715633  9.972836
 Ni  2.723074  2.717523 11.713655
 Ni  4.460757  0.820958 11.771366
 Ni  4.487607  2.688991  9.907757
 Ni  2.718129  0.881310  9.957446
 Ni  6.276078  2.608454 11.752740
 Ni  8.156353  0.823465 11.762589
 Ni  6.282033  0.905873  9.931279
 Ni  9.966372  2.697509 11.812710
 Ni 11.728586  0.901216 11.773806
 Ni  9.929393  6.377679 11.776880
 Ni  9.970582  0.895057  9.982005
 Ni  0.946311  4.525446 11.769836
 Ni  0.945896  6.310347 10.012150
 Ni  2.825846  6.281804 11.858752
 Ni  6.336190  4.555389  9.927627
 Ni  2.746523  4.549037  9.974541
 Ni  6.310735  6.316479 11.772583
 Ni  9.902869  8.164862 13.541608
 Ni 11.828189  4.561799 11.753316
 Ni 11.750118  6.340482  9.961066
 Ni  8.172565  6.292508  9.957353
 Ni  0.990572  8.093849 11.759679
 Ni  4.541790  8.203132 11.795873
 Ni  2.762050  8.130792  9.976881
 Ni  6.327923  9.919577 11.744740
 Ni  9.928820  8.132567  9.947235
 Ni  8.142873  9.940042  9.902786
 Ni  9.930644 10.001293 11.743164
 Ni 11.820246  6.435619 13.623644
 Ni 11.780983  9.919882 10.013095
 Ni  0.888339 11.667604 11.708969
 Ni  0.869938 13.565763  9.929633
 Ni  2.768936 11.672288  9.969664
 Ni  4.565262 11.725721 11.733712
 Ni  2.713794  9.942565  8.148773
 Ni  4.557171 11.723264  8.192757
 Ni  6.350064 13.562298 11.731297
 Ni  9.913016 11.811306  9.979352
 Ni  6.391594 11.732187  9.883043
 Ni  9.939182 13.529683 11.770471
 Ni 11.739079 11.728339 11.793468
 Ni 11.753539 13.579756 10.028078
 Ni  8.153743 11.776470  8.067186
 Ni  0.884928  2.718501 13.598197
 Ni  2.722701  2.708712  0.979611
 Ni  4.540633  0.863452  0.912855
 Ni  4.569195  2.705674 13.594545
 Ni  6.344986  2.694431  0.896107
 Ni  8.177357  0.923114  0.912175
 Ni  6.277044  0.810604 13.571109
 Ni 11.825696  0.830661  0.925490
 Ni 11.789321  2.707796 13.564823
 Ni  9.968971  0.869934 13.573788
 Ni  0.975203  6.255673 13.624857
 Ni  2.763126  6.329028  0.937278
 Ni  4.555464  4.542564  0.920187
 Ni  6.401125  6.420917  1.023280
 Ni  6.293125  4.526241 13.562993
 Ni  8.102684  6.320557 13.549169
 Ni  8.084136  4.509241 11.775328
 Ni  9.902788  6.247649  0.918466
 Ni 13.671522  2.690444  1.053918
 Ni 11.763823  4.536135  0.929399
 Ni  0.977915  8.130554  0.991750
 Ni  0.928252  9.945125 13.641757
 Ni  2.717201  9.956035  0.950882
 Ni  4.555751  8.250537  0.977688
 Ni  2.736934  8.144529 13.617761
 Ni  6.358903 11.775161 13.585409
 Ni  6.377788  8.227875 13.630810
 Ni  9.911422 10.013453  0.953373
 Ni 11.740666  9.956404 13.598733
 Ni  8.158132  9.989385 13.574706
 Ni  0.963468 11.777686  0.910485
 Ni  0.943739 13.620186 13.604600
 Ni  2.753448 13.586291  0.898694
 Ni  4.516317 11.758582  0.951691
 Ni  2.715166 11.749657 13.577194
 Ni  8.177163 11.844901  0.993332
 Ni  8.165988 13.567420 13.559756
 Ni  9.974116 13.601908  0.926079
 Ni 11.755516 13.494745 13.589384
 Ni  0.964868  0.826292  4.555169
 Ni  2.863102  2.710816  4.625366
 Ni  2.733952  0.900568  6.364853
 Ni  4.540365  2.713933  2.692878
 Ni  2.777986  0.875687  2.730658
 Ni  6.315331  0.859939  2.710227
 Ni 11.762321  0.861364  4.583969
 Ni  9.970501  0.930585  2.780412
 Ni  0.944143  4.544097  4.548928
 Ni  2.751897  6.390520  4.671100
 Ni  4.530651  6.383996  2.758662
 Ni  2.769159  4.544248  2.744228
 Ni  6.356299  6.336079  4.568586
 Ni  6.334840  4.526246  2.728502
 Ni  8.152584  4.446242  4.567981
 Ni 11.766633  4.512021  4.595815
 Ni 11.712274  6.370541  2.701193
 Ni  9.898347  4.421778  2.666513
 Ni  0.896823  8.245123  4.530498
 Ni  0.952352  9.992419  2.717494
 Ni  2.741330  9.979680  4.538182
 Ni  4.553893  9.981073  2.777154
 Ni  2.795033  8.200906  2.755607
 Ni  6.323914  9.940579  4.563877
 Ni  8.168561  8.087976  4.540297
 Ni  8.111750  9.918997  2.734967
 Ni  9.964837  9.938088  4.518519
 Ni 11.765740  8.174992  4.555049
 Ni 11.724621  9.947652  2.742092
 Ni  9.891877  8.118681  2.786808
 Ni  0.950774 13.548925  2.722643
 Ni  2.737891 13.536767  4.539052
 Ni  4.535418 11.766366  4.500650
 Ni  4.515315 13.522845  2.731239
 Ni  2.750460 11.769080  2.690292
 Ni  6.324876 13.570378  4.570137
 Ni  8.130103 11.731356  4.626895
 Ni  6.370764 11.805050  2.816111
 Ni  9.983179 13.564572  4.571505
 Ni 11.714514 11.748564  4.529710
 Ni 11.719457 13.516595  2.756389
 Ni  9.901661 11.743944  2.799579
 Ni  0.932247  0.877095  8.158284
 Ni  0.952142  2.681700  6.328346
 Ni  2.675389  2.716822  8.176284
 Ni  4.520522  0.896643  8.168878
 Ni  6.181116  2.728848  4.581153
 Ni  2.735010 13.578762  8.164989
 Ni  6.320611  2.748083  8.207513
 Ni  8.157589  0.926713  8.143843
 Ni  8.113612  0.984679  4.580648
 Ni  6.292816  0.935358  6.383105
 Ni  9.975144  4.429274  6.365206
 Ni 11.833934  0.891404  8.162746
 Ni 11.849063  2.689323  6.357871
 Ni  9.974927  0.920242  6.338013
 Ni  0.909857  4.483525  8.142267
 Ni  0.900889  6.351257  6.306608
 Ni  4.496792  7.976657  8.037210
 Ni  2.718079  4.508187  6.353441
 Ni  6.372040  8.114057  9.902311
 Ni  8.285647  4.405851  8.235399
 Ni  8.185266  6.297320  6.322530
 Ni  6.326371  4.550691  6.355225
 Ni 11.779052  2.712333 10.005236
 Ni 11.842510  6.335193  6.384209
 Ni 11.729071  4.518068  8.172086
 Ni  0.894406  8.139411  8.177516
 Ni  0.880941 10.144593  6.378974
 Ni  4.537529  9.838089  6.377546
 Ni  4.517256  4.651032  8.200820
 Ni  6.387532  9.905224  8.087571
 Ni  8.175270  8.147603  8.140055
 Ni  6.387337  8.079478  6.342295
 Ni 11.798825  8.146411  8.145407
 Ni 11.756705  9.940101  6.330724
 Ni 10.004718  8.181500  6.349245
 Ni  0.968939 13.443349  6.349876
 Ni  4.511351 13.617963  6.383290
 Ni  6.336449 13.577986  8.088937
 Ni  9.978797 11.739255  6.347214
 Ni 11.742217 11.746467  8.190422
 Ni 11.770698 13.574008  6.316126
%endblock positions_abs_product 
%block positions_abs_intermediate 
     ang 
Al 13.592334  0.908235  9.976953
 Al 13.602915  4.526767  9.965377
 Al 13.554180  8.029246  9.899249
 Al 13.438809 11.818001 10.067741
 Al 13.516985  0.905407 13.518791
 Al 13.514659  4.540784 13.540101
 Al 13.753633  8.118846 13.648678
 Al 13.654162 11.731592 13.510589
 Al 13.472955  0.783397  2.834887
 Al 13.409605  4.530984  2.833230
 Al 13.566530  8.251632  2.785149
 Al 13.593143 11.759346  2.724026
 Al 13.633156  0.858482  6.345782
 Al 13.603097  4.504488  6.338448
 Al 13.599005  8.197058  6.357660
 Al 13.417701 11.765774  6.365000
 Al 10.118763 13.593075  8.147274
 Al  6.179060 11.746070  6.345494
 Al  8.152328 13.638903  6.282475
 Al  2.546625 13.460538 11.680048
 Al  2.957577 11.738061  6.374164
 Al  2.549716  8.270075  6.373897
 Al  4.599277 13.530758  9.891984
 Al  0.993221 11.851336  8.199055
 Al 10.046172  9.959352  8.239856
 Al  8.175860  9.869782  6.270095
 Al  4.548128  6.451341 10.005660
 Al  2.586146  6.258948  8.146850
 Al 10.118722  2.605109  8.136325
 Al  6.462422  6.297692  8.084607
 Al  4.520395  2.760231  6.547164
 Al  8.234662 13.600447  2.866992
 Al  1.031958 11.755717  4.505270
 Al  6.317014  8.168604  2.793892
 Al  4.514489  8.117847  4.642147
 Al 10.096854  6.310614  4.661281
 Al  8.177921  6.242182  2.862414
 Al  4.526087  4.645898  4.543458
 Al  1.107054  6.415981  2.869268
 Al 10.092049  2.700808  4.551809
 Al  9.984346  6.385347  8.085880
 Al  7.999311  4.578416  0.851859
 Al  7.975907  2.637887  2.797682
 Al  4.538886  0.840056  4.508029
 Al  1.112493  2.693949  2.965422
 Al  9.903088 11.767625 13.569612
 Al 11.671500 11.759461  1.003123
 Al  8.023920 11.696581 11.726454
 Al  6.370426 13.544225  0.955289
 Al  4.542000 13.443881 13.529723
 Al 11.566639  8.166152  0.929959
 Al  6.411792 10.150913  0.976046
 Al  8.282660  8.135545  0.835993
 Al  4.572407  9.984778 13.614734
 Al 10.080665  4.644293 13.443779
 Al  2.760164  4.414742 13.557421
 Al  4.648554  6.486401 13.673013
 Al  0.988299  4.506278  0.960130
 Al 10.144653  2.573727  0.942550
 Al  8.023828  2.555517 13.441526
 Al  2.760348  1.055285 13.535929
 Al  0.982449  0.845447  0.974213
 Al  8.074367 13.643973  9.900196
 Al 11.642782  8.143198 11.796023
 Al  8.121104  8.164853 11.738109
 Al  4.612952  9.846532  9.806739
 Al  2.689693  9.943173 11.841044
 Al  0.952408  9.862953  9.944900
 Al  8.050922  2.622620 10.059022
 Al  8.000235  2.732220  6.376530
 Al 10.014497  4.552624 10.127917
 Al  4.635450  4.375808 11.684013
 Ni 13.595334  2.720988 11.773108
 Ni 13.594047  6.402536 11.809158
 Ni 13.573514  9.821717 11.781334
 Ni 13.594639 13.578304 11.805416
 Ni 11.814778  2.676146  2.747060
 Ni 13.655409  6.299943  1.035834
 Ni 13.569030  9.963733  0.934604
 Ni 13.576045 13.517587  0.920995
 Ni 13.614418  2.672284  4.520929
 Ni 13.566847  6.376926  4.472829
 Ni 13.581121 10.047075  4.539738
 Ni 13.603619 13.469726  4.551199
 Ni 13.589948  2.698787  8.168565
 Ni 13.602871  6.296927  8.154159
 Ni 13.594541 10.042922  8.244611
 Ni 13.553933 13.514668  8.148040
 Ni  0.942313  0.930958 11.766359
 Ni  0.938988  2.714161  9.976756
 Ni  2.728087  2.717317 11.714719
 Ni  4.465755  0.817853 11.771709
 Ni  4.492763  2.687622  9.911310
 Ni  2.722421  0.880662  9.958826
 Ni  6.280267  2.608313 11.752071
 Ni  8.158672  0.824118 11.763677
 Ni  6.285761  0.905207  9.931510
 Ni  9.967858  2.696837 11.816174
 Ni 11.730161  0.901027 11.777854
 Ni  9.934319  6.378947 11.779705
 Ni  9.972284  0.894823  9.983770
 Ni  0.947823  4.524968 11.773783
 Ni  0.940566  6.314202 10.023638
 Ni  2.828059  6.287009 11.858552
 Ni  6.347062  4.557203  9.933051
 Ni  2.746893  4.549907  9.983977
 Ni  6.317442  6.322413 11.770720
 Ni  9.907445  8.166956 13.545116
 Ni 11.829044  4.561353 11.756805
 Ni 11.753138  6.340546  9.963130
 Ni  8.183220  6.297435  9.962149
 Ni  0.985708  8.099761 11.768401
 Ni  4.546080  8.208920 11.781016
 Ni  2.755724  8.121717  9.980256
 Ni  6.333797  9.920244 11.737031
 Ni  9.937370  8.136069  9.948973
 Ni  8.157075  9.944395  9.905320
 Ni  9.937139 10.005397 11.747093
 Ni 11.821600  6.435525 13.627747
 Ni 11.785145  9.923705 10.015064
 Ni  0.891253 11.669211 11.710019
 Ni  0.873270 13.565195  9.931336
 Ni  2.773001 11.669811  9.969088
 Ni  4.570611 11.722077 11.728941
 Ni  2.702299  9.945310  8.153079
 Ni  4.561440 11.712944  8.198861
 Ni  6.353825 13.560428 11.730207
 Ni  9.921747 11.814701  9.981188
 Ni  6.397761 11.730639  9.883692
 Ni  9.942390 13.530447 11.773972
 Ni 11.743313 11.731142 11.796082
 Ni 11.756569 13.581830 10.030004
 Ni  8.166448 11.786507  8.069042
 Ni  0.889772  2.718060 13.598610
 Ni  2.730853  2.709003  0.977003
 Ni  4.544994  0.862354  0.912283
 Ni  4.573992  2.705461 13.592689
 Ni  6.347231  2.696828  0.896433
 Ni  8.178585  0.924584  0.914938
 Ni  6.279907  0.810512 13.569813
 Ni 11.827674  0.832224  0.928510
 Ni 11.790394  2.707602 13.567989
 Ni  9.970540  0.870613 13.576918
 Ni  0.977485  6.257713 13.622673
 Ni  2.767165  6.331575  0.929757
 Ni  4.560198  4.544287  0.915255
 Ni  6.404804  6.423730  1.020118
 Ni  6.296491  4.529115 13.560569
 Ni  8.106251  6.323222 13.549475
 Ni  8.089508  4.510852 11.777967
 Ni  9.903322  6.248019  0.920749
 Ni 13.674535  2.690096  1.054678
 Ni 11.764229  4.535285  0.932459
 Ni  0.981843  8.133375  0.987606
 Ni  0.932228  9.947338 13.639947
 Ni  2.720846  9.959098  0.948706
 Ni  4.559360  8.254893  0.973255
 Ni  2.742823  8.150792 13.613371
 Ni  6.363173 11.775167 13.584020
 Ni  6.380606  8.231336 13.625973
 Ni  9.913607 10.014577  0.956168
 Ni 11.744668  9.959570 13.603223
 Ni  8.162225  9.991675 13.574868
 Ni  0.968491 11.779216  0.911808
 Ni  0.948092 13.620834 13.605668
 Ni  2.758807 13.586283  0.898624
 Ni  4.519888 11.759003  0.950951
 Ni  2.720271 11.750725 13.575366
 Ni  8.180140 11.846564  0.995826
 Ni  8.169242 13.568197 13.562317
 Ni  9.976279 13.604233  0.929968
 Ni 11.757817 13.496817 13.593465
 Ni  0.971490  0.829098  4.555386
 Ni  2.869812  2.712138  4.626182
 Ni  2.736786  0.902348  6.367442
 Ni  4.544853  2.713794  2.691585
 Ni  2.783773  0.876605  2.730423
 Ni  6.316988  0.860116  2.711664
 Ni 11.766192  0.864359  4.583981
 Ni  9.970735  0.933834  2.783490
 Ni  0.951361  4.548007  4.545524
 Ni  2.749183  6.387440  4.654543
 Ni  4.533641  6.387982  2.743232
 Ni  2.774320  4.546564  2.735322
 Ni  6.345248  6.346495  4.575721
 Ni  6.334601  4.530511  2.730139
 Ni  8.147391  4.449947  4.573474
 Ni 11.770063  4.512639  4.595169
 Ni 11.715769  6.369975  2.701061
 Ni  9.896388  4.422898  2.670386
 Ni  0.902898  8.244379  4.533362
 Ni  0.959438  9.993447  2.719650
 Ni  2.748655  9.978395  4.547619
 Ni  4.557169  9.983557  2.774788
 Ni  2.797274  8.203343  2.750540
 Ni  6.322289  9.943152  4.569034
 Ni  8.170108  8.088315  4.543730
 Ni  8.114010  9.920570  2.737251
 Ni  9.968956  9.938463  4.518646
 Ni 11.769797  8.174535  4.554821
 Ni 11.728716  9.948396  2.742676
 Ni  9.892209  8.117257  2.789108
 Ni  0.956629 13.548936  2.724741
 Ni  2.742377 13.535895  4.541770
 Ni  4.539123 11.765557  4.500721
 Ni  4.519146 13.521822  2.731518
 Ni  2.754918 11.768983  2.692711
 Ni  6.325447 13.570139  4.573254
 Ni  8.131455 11.731847  4.627631
 Ni  6.372747 11.806103  2.816104
 Ni  9.986167 13.566498  4.571857
 Ni 11.718950 11.749383  4.529611
 Ni 11.723444 13.519860  2.758563
 Ni  9.904414 11.746288  2.801979
 Ni  0.936451  0.879488  8.159544
 Ni  0.960275  2.688662  6.329688
 Ni  2.678976  2.719447  8.182248
 Ni  4.523193  0.897107  8.171456
 Ni  6.178874  2.729666  4.585200
 Ni  2.739493 13.576007  8.166550
 Ni  6.324446  2.749099  8.209117
 Ni  8.161053  0.925073  8.144028
 Ni  8.114025  0.986250  4.583217
 Ni  6.294871  0.935135  6.384896
 Ni  9.978317  4.429620  6.365246
 Ni 11.836314  0.892324  8.162611
 Ni 11.852613  2.689830  6.358156
 Ni  9.976381  0.921947  6.337733
 Ni  0.905296  4.480590  8.149044
 Ni  0.895068  6.350784  6.306121
 Ni  4.478506  7.213798  7.267240
 Ni  2.727418  4.516010  6.359817
 Ni  6.383090  8.113701  9.900358
 Ni  8.292678  4.408239  8.237025
 Ni  8.195100  6.298974  6.324160
 Ni  6.318563  4.557520  6.363660
 Ni 11.779884  2.710601 10.007862
 Ni 11.846448  6.335137  6.384120
 Ni 11.731017  4.517668  8.174126
 Ni  0.900631  8.140789  8.179539
 Ni  0.889439 10.137262  6.379904
 Ni  4.543126  9.810752  6.421766
 Ni  4.521409  4.647667  8.225642
 Ni  6.411908  9.913201  8.094993
 Ni  8.184268  8.152661  8.141294
 Ni  6.392967  8.083185  6.356289
 Ni 11.802470  8.146534  8.145233
 Ni 11.760969  9.941303  6.329378
 Ni 10.009283  8.182186  6.349258
 Ni  0.974305 13.445839  6.350115
 Ni  4.513661 13.617670  6.386106
 Ni  6.338353 13.575134  8.089239
 Ni  9.983207 11.740439  6.345002
 Ni 11.746778 11.750708  8.189482
 Ni 11.774791 13.575518  6.314756
%endblock positions_abs_intermediate 
     kpoint_mp_grid 1 1 1 
     fix_com : false