#######################################################
#CASTEP cell file: /home/u2093113/Documents/kART/barriers/CASTEP/castep.cell
#Created using the Atomic Simulation Environment (ASE)#
#######################################################

%BLOCK LATTICE_CART
14.464828  0.000000  0.000000
 0.000000 14.464828  0.000000
 0.000000  0.000000 14.464828
%ENDBLOCK LATTICE_CART

%BLOCK POSITIONS_ABS
Ni 13.605636  4.519736  6.340593
Al 13.642471  2.720101  4.535831
Ni 13.601299  8.245086  6.313967
Al 13.629235  6.363846  4.536920
Ni 13.604107 11.726480  6.305811
Al 13.695422  9.974459  4.450361
Ni 13.616442  0.895935  6.324079
Al 13.651874 13.559258  4.518532
Ni 11.832175  4.537722 11.729940
Al 13.626106  2.693385  8.137791
Ni 13.573498  8.208169  9.960802
Al 13.619073  6.376461  8.131921
Ni 13.581564 11.763201  9.986409
Al 13.721488  9.996239  8.155245
Ni 13.601912  0.859048  9.964531
Al 13.675354 13.545946  8.095801
Ni 13.607084  4.552163 13.543434
Al 13.654341  2.718650 11.742405
Ni 13.595544  8.139133 13.565280
Al 13.630828  6.361339 11.720832
Ni 13.624913 11.748693 13.589497
Al 13.680164  9.956041 11.809341
Ni 13.636429  0.929653 13.568736
Al 13.719406 13.563210 11.843903
Ni 13.595902  4.552158  2.734489
Al 13.668692  2.734776  0.901448
Ni 13.606956  8.150410  2.703744
Al 13.643298  6.348209  0.919400
Ni 13.613471 11.774068  2.680510
Al 13.645491  9.951018  0.900413
Ni 13.609016  0.904648  2.704727
Al 13.658307 13.573808  0.884681
Ni  0.882592  2.714819  6.323379
Ni  0.897040  4.516343  4.538920
Ni  2.730051  4.486087  6.259877
Ni  4.462235  2.583949  6.273605
Ni  4.519227  4.512186  4.517872
Ni  2.683093  2.666509  4.508403
Ni  6.289367  4.431885  6.275261
Ni  8.152185  2.611185  6.289108
Al 10.139557  0.932590  2.639432
Ni  6.291010  2.663807  4.470686
Ni  9.975234  4.485185  6.327720
Ni 11.819081  2.672334  6.339034
Ni  9.953521  8.209303  6.291869
Ni 10.029259  2.681235  4.498365
Ni  0.901292  6.334761  6.363833
Ni  0.902818  8.174473  4.596318
Ni  2.712120  8.233035  6.387982
Al  6.185042 13.555989  0.852826
Ni  4.517106  6.469542  2.829265
Ni  2.759322  6.375492  4.654052
Ni  6.348653  8.260755  6.294067
Al  8.143242  1.031349  0.822761
Al  2.530874  0.799621  6.233708
Al  2.802469 13.566397  0.879432
Ni  9.968839  9.995211  8.096779
Ni 11.868194  6.386279  6.330919
Ni 11.809736  8.204739  4.512683
Ni  8.142116  8.153015  4.501967
Ni  0.852095  9.997026  6.369231
Al  2.521493 10.037475  0.902589
Al  4.551543  0.851488  4.410482
Ni  4.521751 10.119412  6.332864
Al  0.766190 13.673974  2.663869
Ni  2.649962 10.038337  4.523884
Ni  6.348532 11.800549  6.271907
Ni  9.973533  9.966019  4.482274
Ni  8.152548 11.799776  4.431188
Al 10.043244 11.775036  2.723215
Ni  9.951563 11.828254  6.273524
Ni 11.819803  8.234965  8.127411
Ni 11.818009 11.770937  4.500729
Al  8.160826 11.707373  0.800380
Ni  0.800969 13.548948  6.303956
Ni  0.825798  0.912664  4.481900
Ni  2.627125 13.513360  4.458692
Ni  4.483679 13.525886  6.228429
Ni  2.614623 11.785428  2.710094
Ni  4.494417 13.553115  2.675090
Ni  6.327357  0.839272  6.258126
Ni  9.968111 13.622969  4.453806
Al  4.449621  8.290718  4.687564
Ni  6.356339 13.567632  4.406329
Ni  9.959753  0.855322  6.286783
Ni 11.804386 13.545058  6.321794
Ni 11.833356  0.895632  4.519602
Ni  8.180901 13.598664  2.572735
Al  2.562383  8.105197  2.757183
Ni  0.909672  4.525648  8.106545
Ni  2.709142  4.552525  9.895061
Ni  4.506640  2.690271  9.899859
Ni  4.557351  4.483419  8.057527
Ni  6.337652  4.501643  9.867847
Ni  8.158524  2.708810  9.949971
Al 10.114230  4.480766  2.687655
Ni  6.281831  2.603738  8.106009
Al  6.407019  8.203385  2.634527
Ni 11.842123  2.675637  9.943100
Ni 11.801408  4.515480  8.114952
Ni 10.007903  2.676732  8.116532
Al  4.496897  4.586977  1.088490
Ni  0.912046  8.163069  8.118284
Ni  2.753233  8.146830  9.816060
Ni  4.548656  6.369538  9.845148
Ni  6.377932  8.222265  9.931527
Ni  6.226713  6.350800  7.965136
Ni  8.121645  8.172503  8.072087
Ni  8.148296  6.308196  6.333825
Ni  9.914277  8.083770  9.918179
Ni 13.585826  4.537159  9.925337
Al  8.234141  0.988860 11.901545
Ni 11.781137  6.362251  9.895829
Ni  0.900118  9.974493  9.931877
Ni  0.866838 11.792825  8.160624
Ni  2.716992 11.823907  9.913430
Ni  4.580255 10.044192  9.926481
Al  0.887144 13.557214 13.452351
Ni  2.718464 10.040511  8.151794
Ni  6.358340 13.597150  8.126980
Al  6.324002  9.969567 11.776680
Ni  6.399291 10.093333  8.163310
Ni  9.952318 11.816060  9.985334
Al  4.457688  9.948443 13.564023
Ni 11.805475 11.789693  8.165069
Ni  8.169400 11.848792  8.132795
Ni  0.867625 13.618806  9.952454
Ni  0.882026  0.942649  8.150504
Ni  2.703526  0.939211  9.891552
Ni  4.524854 13.610483  9.959776
Al 10.053957  8.072909 13.664448
Ni  2.674591 13.589108  8.114780
Al  8.156595  8.036571 11.827471
Ni  8.218848 13.650731  9.997138
Ni  8.157821  0.897130  8.111592
Al  4.469261  6.442750 13.498355
Ni  9.975651  0.938675  9.987180
Al  1.051802  8.176369 11.689793
Ni 11.807284  0.851242  8.152411
Ni  0.930805  2.727992 13.550718
Al 10.108776  4.556661 13.575367
Ni  2.807512  4.566193 13.595410
Ni  2.725724  2.734640  0.908702
Ni  4.529496  4.551293 11.700392
Ni  2.707215  2.750346 11.718326
Al  9.965326  8.183740  2.640374
Al  8.013934  6.373756  9.782448
Al  7.993884  4.488945 11.783043
Ni  6.300602  2.698713 11.742945
Al  4.471725  2.694972 13.505857
Ni 11.862018  2.735403 13.552552
Al  0.955006  4.573624 11.883371
Ni 10.003554  2.775765 11.786720
Al  9.997305 13.600123  8.128129
Ni  0.931307  6.365917 13.562553
Al 11.744208 13.561163 10.068491
Ni  2.665656  8.200666 13.593316
Al  8.107062 13.521254  6.265676
Ni  4.492576  8.187580 11.695864
Ni  2.719401  6.357095 11.683120
Ni  6.301771  8.139783 13.563268
Al  6.372572  0.898612  9.976118
Al  4.536993  0.790854  8.059290
Ni  6.298411  6.359087 11.705786
Ni  8.137568  6.257928 13.570203
Ni 11.829586  6.345191 13.542761
Ni 11.765931  8.139751 11.743356
Ni  9.933739  6.261872 11.708829
Ni  0.821780  9.967865 13.494045
Ni  0.888009 11.775447 11.686016
Ni  2.680962 11.770527 13.525808
Al 11.633570  9.972463  9.955176
Ni  4.542879 11.782845 11.730434
Ni  2.725262  9.996494 11.710694
Ni  6.313008 11.750029 13.553848
Ni  8.163077  9.888189 13.535150
Ni  8.154782 11.761590 11.793068
Al  6.409496 11.964786  9.993449
Ni  9.980102 11.745891 13.570693
Ni 11.809713  9.939433 13.546212
Ni 11.796861 11.742159 11.785790
Ni  9.948794  9.898414 11.782925
Al  8.285336  9.977065  9.854906
Al  4.539688 11.848742  8.127425
Ni  0.863883  0.943626 11.726713
Ni  2.686559  0.908474 13.531338
Ni  4.484696 13.581066 13.527217
Ni  4.513435  0.929079 11.729229
Ni  2.697156 13.583437 11.730516
Ni  6.320455  0.948144 13.572472
Ni  8.142654 13.591187 13.627190
Al 10.081719  6.409719  7.982247
Ni  6.374115 13.632417 11.807827
Ni 10.002952  0.968533 13.614358
Ni 11.832545 13.566566 13.544103
Ni 11.807138  0.919786 11.792091
Ni  9.977700 13.597823 11.835019
Ni  0.899114  2.713283  2.688149
Ni  0.945854  4.525827  0.892737
Ni  2.684023  4.574984  2.782114
Ni  4.471046  2.715050  2.723366
Ni  6.186521  4.572125 13.588829
Ni  2.664073  0.885314  2.697029
Ni  6.330254  4.578432  2.789873
Ni  8.190829  2.734175  2.662389
Ni  8.136089  2.843912 13.589196
Ni  6.253642  2.766664  0.907563
Ni  9.988663  6.271369  0.948400
Ni 11.878405  2.716293  2.708189
Ni 11.869285  4.543964  0.905798
Ni 10.026936  2.784519  0.889334
Al  2.860821  6.281030  7.924168
Ni  0.870029  6.323945  2.771188
Ni  0.762419  8.142528  0.919649
Al  4.626642  8.320834  8.093816
Ni  4.446139  9.900268  2.697880
Al  0.892832  6.325459  9.796950
Al 10.078597  4.429587  9.938748
Ni  2.697462  6.371079  0.949263
Ni  6.347671  9.978868  4.452780
Ni  8.195493  6.282046  2.830394
Ni  8.169125  8.095616  0.882643
Ni  6.274632  6.372204  0.944620
Al  8.040895  4.358333  7.993118
Ni 11.807504  4.519822  4.554577
Ni 11.820709  8.137480  0.920905
Ni 11.789957  6.363397  2.766595
Ni  0.813759  9.970339  2.715818
Ni  0.869277 11.872176  0.879119
Al  2.732556  2.804952  8.073801
Al  0.891840  2.743467  9.952260
Al  8.101924  0.965847  4.407339
Ni  4.467641 11.707699  0.906711
Ni  4.449305  8.184083  0.925133
Ni  6.359130 11.740471  2.613844
Ni  8.192851  9.982027  2.662145
Al 11.677815 10.027842  6.323739
Ni  6.315156  9.948080  0.857717
Al  8.175920 10.043738  6.303511
Ni 11.814564  9.968779  2.703642
Ni 11.811826 11.766928  0.883789
Ni 10.011529  9.965004  0.885666
Al  4.561634 11.762557  4.403573
Ni  0.891055  0.903054  0.840463
Al  2.598205 11.808027  6.359526
Al  0.743339 11.722276  4.508025
Ni  4.503344  0.946666  0.894192
Al  8.128024  4.355975  4.571763
Al  8.003880  4.552863  0.930846
Ni  6.349001  0.909072  2.615757
Al 10.050764  6.376416  4.666783
Al  6.273975  6.328499  4.696768
Ni 10.015866 13.569528  0.880429
Ni 11.838936 13.563057  2.694563
Ni 11.845758  0.917989  0.867884
%ENDBLOCK POSITIONS_ABS

FIX_ALL_CELL: TRUE
KPOINT_MP_GRID: 1 1 1
