#######################################################
#CASTEP cell file: /home/u2093113/Documents/kART/barriers/CASTEP/castep.cell
#Created using the Atomic Simulation Environment (ASE)#
#######################################################

%BLOCK LATTICE_CART
14.464828  0.000000  0.000000
 0.000000 14.464828  0.000000
 0.000000  0.000000 14.464828
%ENDBLOCK LATTICE_CART

%BLOCK POSITIONS_ABS
Ni 13.601897  4.516041  9.934837
Al 13.640159  2.716122  8.134425
Ni 13.599103  8.236821  9.909583
Al 13.626648  6.358505  8.132345
Ni 13.601415 11.720243  9.901562
Al 13.695011  9.967532  8.048521
Ni 13.609408  0.893723  9.917223
Al 13.646863 13.555274  8.119403
Ni 11.839339  4.524367  0.859765
Al 13.619943  2.689177 11.725962
Ni 13.572216  8.201610 13.554277
Al 13.614733  6.369514 11.725622
Ni 13.579551 11.759668 13.575095
Al 13.720431  9.989021 11.749028
Ni 13.598234  0.851265 13.550484
Al 13.671045 13.541348 11.684086
Ni 13.606389  4.538789  2.675701
Al 13.652048  2.706452  0.869172
Ni 13.596727  8.136717  2.695104
Al 13.630205  6.353024  0.849421
Ni 13.624929 11.748454  2.719511
Al 13.680442  9.954771  0.936421
Ni 13.634422  0.919148  2.701061
Al 13.716003 13.558115  0.968336
Ni 13.595005  4.544523  6.333081
Al 13.666390  2.723015  4.503134
Ni 13.607434  8.145022  6.300438
Al 13.642786  6.340067  4.516442
Ni 13.612810 11.770698  6.282482
Al 13.647175  9.950563  4.497759
Ni 13.604745  0.899328  6.309344
Al 13.656648 13.569527  4.486895
Ni  0.889200  2.724226  9.920517
Ni  0.894520  4.506766  8.120494
Ni  2.734525  4.526775  9.854702
Ni  4.463362  2.631158  9.863857
Ni  4.531483  4.516563  8.023110
Ni  2.682493  2.671077  8.105575
Ni  6.297999  4.454320  9.862464
Ni  8.136029  2.642482  9.867079
Al 10.133855  0.929780  6.251337
Ni  6.290101  2.665988  8.060301
Ni  9.948769  4.501508  9.906931
Ni 11.804813  2.676951  9.928064
Ni  9.949944  8.198430  9.886215
Ni 10.002164  2.704040  8.094902
Ni  0.920426  6.325272  9.930348
Ni  0.912447  8.155987  8.175827
Ni  2.780185  8.137656  9.956643
Al  6.189417 13.555233  4.454938
Ni  6.300641  6.391698  8.046885
Ni  2.760972  6.361701  8.103430
Ni  6.323916  8.204767  9.889487
Al  8.149010  1.020281  4.426845
Al  2.535261  0.807552  9.831956
Al  2.801556 13.557954  4.483232
Ni  9.961670  9.983201 11.690789
Ni 11.860990  6.382714  9.924368
Ni 11.807944  8.200091  8.105606
Ni  8.163525  8.155181  8.084122
Ni  0.883133  9.952046  9.957246
Al  2.520691 10.043508  4.495690
Al  4.551969  0.860807  8.011830
Ni  4.530916 10.050080  9.914648
Al  0.770569 13.661966  6.273894
Ni  2.671147  9.997226  8.113139
Ni  6.337457 11.776407  9.870186
Ni  9.974264  9.961455  8.077724
Ni  8.146568 11.784046  8.031305
Al 10.042187 11.768423  6.324224
Ni  9.938757 11.810542  9.870900
Ni 11.816900  8.228168 11.723388
Ni 11.815028 11.762799  8.101814
Al  8.165426 11.708957  4.398829
Ni  0.815013 13.535839  9.899933
Ni  0.829859  0.907801  8.084104
Ni  2.634649 13.507804  8.061719
Ni  4.486465 13.522764  9.824563
Ni  2.621257 11.773912  6.314553
Ni  4.496491 13.546821  6.281400
Ni  6.319814  0.852707  9.854903
Ni  9.960903 13.610021  8.059272
Al  4.515375  8.270420  8.140170
Ni  6.352211 13.560188  8.009321
Ni  9.941723  0.863917  9.875416
Ni 11.793649 13.540330  9.916394
Ni 11.819916  0.897448  8.120939
Ni  8.181176 13.592010  6.178906
Al  2.566275  8.090593  6.308105
Ni  0.887650  4.521537 11.718497
Ni  2.676897  4.531472 13.537234
Ni  4.500670  2.691374 13.504296
Ni  4.549124  4.506877 11.695080
Ni  6.345538  4.488872 13.500833
Ni  8.160338  2.702993 13.547283
Al 10.105998  4.478106  6.284122
Ni  6.275454  2.622174 11.704266
Al  6.437592  8.156466  6.216022
Ni 11.841061  2.665906 13.529446
Ni 11.791363  4.512929 11.702882
Ni  9.997134  2.682612 11.701244
Al  4.492577  4.596825  4.700242
Ni  0.918893  8.138871 11.717755
Ni  2.729719  8.145883 13.466666
Ni  4.536510  6.356474 13.495885
Ni  6.395030  8.212478 13.568378
Ni  6.302490  6.338829 11.685241
Ni  8.124064  8.155588 11.675900
Ni  8.112525  6.320437  9.906529
Ni  9.919531  8.084223 13.523567
Ni 13.580913  4.529054 13.514895
Al  8.236020  0.974093  1.022002
Ni 11.779141  6.355858 13.491545
Ni  0.899781  9.963469 13.532605
Ni  0.882410 11.765934 11.746161
Ni  2.721359 11.800571 13.501506
Ni  4.580562 10.031499 13.544621
Al  0.884287 13.541846  2.584255
Ni  2.729499  9.988659 11.736610
Ni  6.349876 13.591002 11.716336
Al  6.325095  9.970407  0.926631
Ni  6.391509 10.056207 11.762013
Ni  9.947461 11.810608 13.571946
Al  4.464304  9.933613  2.721902
Ni 11.799023 11.781933 11.754284
Ni  8.155659 11.829076 11.723383
Ni  0.873395 13.602621 13.537199
Ni  0.888128  0.938655 11.742553
Ni  2.703846  0.934403 13.481116
Ni  4.522692 13.598493 13.543928
Al 10.075691  8.077569  2.794425
Ni  2.682674 13.577001 11.703819
Al  8.167340  8.041973  0.986094
Ni  8.212363 13.644355 13.577678
Ni  8.146468  0.905936 11.695556
Al  4.468591  6.425463  2.634175
Ni  9.972022  0.932242 13.568907
Al  1.032866  8.186947  0.860760
Ni 11.796903  0.849951 11.736792
Ni  0.913667  2.692780  2.686459
Al 10.127855  4.536842  2.703632
Ni  2.796226  4.543755  2.732230
Ni  2.716566  2.707841  4.492756
Ni  4.522503  4.535259  0.852873
Ni  2.698135  2.726979  0.862775
Al  9.972795  8.184633  6.222309
Al  8.056879  6.363131 13.432596
Al  8.010790  4.466238  0.933521
Ni  6.301606  2.681640  0.880692
Al  4.469947  2.676831  2.642815
Ni 11.866495  2.718163  2.684758
Al  0.930704  4.544088  1.050942
Ni 10.012385  2.755907  0.914133
Al  9.985016 13.594589 11.712413
Ni  0.912377  6.359437  2.703197
Al 11.739980 13.555697 13.648667
Ni  2.667125  8.195463  2.746459
Al  8.092391 13.510313  9.861634
Ni  4.493874  8.180152  0.852260
Ni  2.694777  6.347594  0.843414
Ni  6.305333  8.131514  2.703964
Al  6.367484  0.897119 13.563869
Al  4.534305  0.802862 11.647858
Ni  6.311307  6.344837  0.860699
Ni  8.149069  6.247029  2.704756
Ni 11.842405  6.336946  2.672160
Ni 11.773174  8.139318  0.874126
Ni  9.948979  6.257580  0.852767
Ni  0.813598  9.974253  2.636456
Ni  0.888562 11.766231  0.816161
Ni  2.683587 11.769957  2.662348
Al 11.633336  9.970519 13.546960
Ni  4.543328 11.776306  0.867825
Ni  2.725290  9.993484  0.865483
Ni  6.315939 11.751997  2.689997
Ni  8.170389  9.896486  2.668802
Ni  8.154976 11.760707  0.920042
Al  6.404621 11.951365 13.584196
Ni  9.984442 11.749222  2.700696
Ni 11.817251  9.944254  2.676130
Ni 11.797718 11.743613  0.910274
Ni  9.955781  9.902687  0.915657
Al  8.284114  9.968716 13.457340
Al  4.541366 11.815427 11.714481
Ni  0.858140  0.921158  0.854255
Ni  2.682615  0.885533  2.661639
Ni  4.486300 13.575233  2.657959
Ni  4.510956  0.916256  0.856103
Ni  2.697218 13.569292  0.853640
Ni  6.323018  0.930214  2.699370
Ni  8.146142 13.586932  2.754888
Al 10.074857  6.405742 11.579415
Ni  6.373293 13.624383  0.929528
Ni 10.006523  0.955029  2.743319
Ni 11.831770 13.562695  2.676024
Ni 11.808619  0.907411  0.914439
Ni  9.977722 13.592625  0.954204
Ni  0.889983  2.693248  6.277052
Ni  0.920136  4.499336  4.468543
Ni  2.660553  4.540583  6.337469
Ni  4.469824  2.703800  6.301557
Ni  6.192923  4.550848  2.723319
Ni  2.664592  0.878152  6.298734
Ni  6.340907  4.550582  6.322489
Ni  8.187932  2.738273  6.266273
Ni  8.146156  2.814900  2.716719
Ni  6.257277  2.740160  4.486391
Ni 10.012369  6.264507  4.524462
Ni 11.871360  2.712500  6.313381
Ni 11.873047  4.530113  4.504912
Ni 10.030340  2.770307  4.490382
Al  2.726563  6.270359 11.690729
Ni  0.852855  6.311211  6.333354
Ni  0.744397  8.144941  4.505494
Al  4.623084  8.289901 11.760085
Ni  4.462765  9.903729  6.260689
Al  0.822904  6.316853 13.473704
Al 10.087097  4.418003 13.541226
Ni  2.684902  6.348728  4.541153
Ni  6.361566  9.963172  8.041513
Ni  8.232202  6.281465  6.363598
Ni  8.187103  8.094917  4.455995
Ni  6.278119  6.351719  4.539996
Al  8.043061  4.367487 11.597706
Ni 11.803039  4.519978  8.149474
Ni 11.830286  8.137175  4.515335
Ni 11.788810  6.357967  6.359012
Ni  0.819595  9.958762  6.310003
Ni  0.867724 11.869692  4.483555
Al  2.730338  2.826425 11.670780
Al  0.881653  2.727818 13.557265
Al  8.094204  0.963872  8.009988
Ni  4.474059 11.713281  4.502927
Ni  4.464538  8.119289  4.565554
Ni  6.364804 11.737189  6.209018
Ni  8.194503  9.972376  6.246893
Al 11.675610 10.017130  9.920374
Ni  6.323646  9.940818  4.451354
Al  8.156134 10.007037  9.899905
Ni 11.817653  9.966397  6.300379
Ni 11.814237 11.768063  4.484162
Ni 10.020010  9.968964  4.478748
Al  4.568527 11.741668  8.002274
Ni  0.885027  0.876209  4.440769
Al  2.614841 11.781067  9.950681
Al  0.760459 11.698157  8.108908
Ni  4.502317  0.930230  4.491132
Al  8.051150  4.444795  8.146296
Al  8.023662  4.528206  4.502312
Ni  6.349756  0.904927  6.216833
Al 10.049810  6.378849  8.251384
Al  4.619210  6.237144  9.845270
Ni 10.015414 13.566050  4.484422
Ni 11.834363 13.558481  6.301014
Ni 11.843173  0.909352  4.473294
%ENDBLOCK POSITIONS_ABS

FIX_ALL_CELL: TRUE
KPOINT_MP_GRID: 1 1 1
