#######################################################
#CASTEP cell file: /home/u2093113/Documents/kART/CASTEP/castep.cell
#Created using the Atomic Simulation Environment (ASE)#
#######################################################

%BLOCK LATTICE_CART
14.464828  0.000000  0.000000
 0.000000 14.464828  0.000000
 0.000000  0.000000 14.464828
%ENDBLOCK LATTICE_CART

%BLOCK POSITIONS_ABS
Al  8.226142  4.451668 11.766299
Al 11.844843  4.458785 11.757792
Al  8.219342  8.091145 11.802783
Al 11.854655  8.087278 11.769917
Al  8.303585 11.691841 11.691208
Al 11.878435 11.687870 11.742542
Al  8.243105  0.854822 11.761140
Al 11.856887  0.849768 11.741879
Al  8.218995  4.437928  0.908312
Al 11.852736  4.471345  0.887154
Al  8.285257  7.991245  0.889346
Al 11.860402  8.074514  0.896209
Al  8.394137 11.801884  0.915686
Al 11.872101 11.683815  0.903211
Al  8.298146  0.825535  0.833631
Al 11.880562  0.860390  0.886364
Al  8.244062  4.421011  4.513258
Al 11.835305  4.481088  4.514154
Al  8.231572  8.113069  4.503574
Al 11.830503  8.074186  4.505288
Al  8.299663 11.703119  4.577274
Al 11.898357 11.678712  4.525205
Al  8.346549  0.835728  4.621449
Al 11.841450  0.845429  4.528739
Al  8.265956  4.459878  8.148746
Al 11.813337  4.479939  8.146394
Al  8.214721  8.075008  8.154284
Al 11.832815  8.083734  8.145134
Al  8.230011 11.692115  8.156886
Al 11.838958 11.671214  8.158320
Al  8.246723  0.844609  8.132650
Al 11.877405  0.838432  8.155597
Al  4.766540  2.661690  9.912616
Al  0.825632  0.866784  8.122620
Al  2.803008  2.752274  8.015090
Al  4.666405 13.537769 10.008185
Al  2.783731 13.410054  8.048133
Al  4.609403  9.965499 10.043579
Al  0.990707  9.876020  9.926609
Al  2.849807  2.692470  4.641141
Al  0.863734 11.671942  4.650000
Al  4.725889  9.954502  6.329182
Al  2.776657  9.664574  4.532147
Al  5.626356  6.224248  5.448935
Al  4.713666  7.982388  8.178831
Al  2.783530  6.274513  4.461472
Al  0.814252  6.263366  6.337619
Al  4.545203  0.859650  0.906388
Al  6.369190  0.850090  2.825799
Al  2.645564  0.783484 13.531513
Al  0.911921  2.669780  2.652897
Al  6.246013 11.794889  2.758790
Al  0.900245 13.641721  2.658935
Al  2.888803 11.700005  2.614003
Al  6.233343  9.773791  0.877831
Al  4.798617  6.226126  2.685430
Al  2.699350  6.151756  0.885416
Al  2.700952  2.714603 11.715013
Al  6.283850 11.811900 13.497723
Al  2.768705 11.709371 13.548749
Al  2.804116  6.178233 11.657982
Al  2.754303  6.164434  8.284106
Al  2.763207  8.198088 13.524683
Ni  8.211062  6.242773 13.546078
Ni 10.042152  4.456126 13.565203
Ni 10.041380  6.275707 11.777450
Ni 11.860436  6.274533 13.561146
Ni 13.661313  4.474371 13.538648
Ni 13.641253  6.288627 11.752628
Ni  8.168365  9.969584 13.672048
Ni 10.038048  8.084346 13.571408
Ni 10.044875  9.878309 11.780147
Ni 11.865007  9.879300 13.571503
Ni 13.685944  8.078096 13.562687
Ni 13.674683  9.887117 11.764225
Ni  8.243325 13.460459 13.551701
Ni 10.074261 11.691570 13.547262
Ni 10.046990 13.505650 11.746358
Ni 11.866019 13.506166 13.533075
Ni 13.657946 11.687794 13.558172
Ni 13.672476 13.491949 11.732826
Ni  8.223444  2.656117 13.574668
Ni 10.069275  0.847192 13.542610
Ni 10.034024  2.655960 11.752602
Ni 11.851690  2.658768 13.532862
Ni 13.682696  0.853148 13.525314
Ni 13.667585  2.656876 11.740265
Ni  8.182870  6.244961  2.743616
Ni 10.029592  4.462883  2.703376
Ni 10.041558  6.248027  0.896247
Ni 11.832527  6.283566  2.680754
Ni 13.649861  4.488539  2.694193
Ni 13.678022  6.274926  0.883710
Ni  8.169494  9.986540  2.594529
Ni 10.007635  8.083221  2.700361
Ni 10.054207  9.886614  0.904935
Ni 11.855541  9.865223  2.707776
Ni 13.675636  8.076278  2.697110
Ni 13.685489  9.885340  0.914168
Ni  8.234825 13.525116  2.740061
Ni 10.078940 11.700884  2.728481
Ni 10.105646 13.531984  0.903541
Ni 11.888119 13.486464  2.715597
Ni 13.706050 11.677372  2.712850
Ni 13.652966 13.506313  0.867963
Ni  8.240391  2.569066  2.718341
Ni 10.083668  0.832866  2.710516
Ni 10.053367  2.650404  0.905085
Ni 11.853068  2.686419  2.708368
Ni 13.609594  0.883396  2.728831
Ni 13.624314  2.665189  0.854101
Ni  8.210246  6.262643  6.295089
Ni 10.039722  4.471780  6.325675
Ni 10.014999  6.274978  4.507113
Ni 11.846940  6.283566  6.328484
Ni 13.621040  4.440906  6.327509
Ni 13.614332  6.269815  4.473486
Ni  8.211512  9.894262  6.336955
Ni 10.013306  8.079603  6.322184
Ni 10.028485  9.891893  4.500381
Ni 11.822488  9.874157  6.323501
Ni 13.633957  8.104061  6.327886
Ni 13.664389  9.843505  4.519650
Ni  8.256121 13.502483  6.346904
Ni 10.056236 11.683126  6.350801
Ni 10.074919 13.487245  4.528171
Ni 11.854412 13.487289  6.344182
Ni 13.630408 11.660385  6.381928
Ni 13.666512 13.522481  4.543019
Ni  8.265644  2.646306  6.330893
Ni 10.083958  0.837852  6.367435
Ni 10.066730  2.653049  4.516145
Ni 11.831569  2.658172  6.334814
Ni 13.634079  0.868131  6.304737
Ni 13.636377  2.672013  4.533768
Ni  8.234936  6.280850  9.983820
Ni 10.032661  4.466236  9.966764
Ni 10.030204  6.286217  8.144749
Ni 11.820567  6.272237  9.970730
Ni 13.642398  4.476046  9.952178
Ni 13.611315  6.281162  8.182556
Ni  8.223234  9.866368  9.974643
Ni 10.035568  8.083832  9.972533
Ni 10.023996  9.871814  8.148684
Ni 11.856819  9.876635  9.954863
Ni 13.648138  8.068829  9.953392
Ni 13.648543  9.859673  8.124372
Ni  8.234979 13.513534  9.936523
Ni 10.054544 11.680354  9.943090
Ni 10.054083 13.495261  8.151746
Ni 11.843797 13.497799  9.951386
Ni 13.671645 11.702558  9.921274
Ni 13.641813 13.469987  8.132339
Ni  8.225048  2.655911  9.953947
Ni 10.043557  0.848458  9.948704
Ni 10.047121  2.654336  8.151941
Ni 11.844183  2.663706  9.957131
Ni 13.636389  0.837856  9.961850
Ni 13.602412  2.697164  8.140563
Ni  1.005478  6.281669 13.526698
Ni  2.783167  4.433721 13.539074
Ni  0.948420  4.486443 11.724416
Ni  4.549447  6.255286 13.557018
Ni  6.375971  4.434120 13.568305
Ni  4.592745  8.038416 11.761548
Ni  4.634838  4.413982 11.754628
Ni  0.982355  8.053753 11.747567
Ni  0.956735  9.903736 13.552172
Ni  4.606965  9.895707 13.504410
Ni  6.374375  8.043992 13.561058
Ni  6.425744  9.912530 11.794587
Ni  2.757675  9.905939 11.722269
Ni  0.944934 13.474670 13.557607
Ni  4.540740 11.741113 11.745046
Ni  2.754264 13.525785 11.701312
Ni  4.559304 13.593885 13.539778
Ni  4.611729 11.730105  0.860764
Ni  6.431142 13.534891 11.757932
Ni  0.970827  2.670866 13.530586
Ni  4.566387  0.902688 11.742867
Ni  0.989396  0.845370 11.689092
Ni  4.571063  2.612462 13.548885
Ni  6.409497  0.832549 13.537339
Ni  6.418926  2.637964 11.795121
Ni  2.782563  0.890039  9.849706
Ni  0.956448  6.240997  2.691404
Ni  2.813295  4.440093  2.718920
Ni  0.945612  4.440391  0.866553
Ni  6.431239  4.377395  2.718473
Ni  6.408768  6.245336  0.857083
Ni  4.599124  4.423645  0.888293
Ni  1.050268  9.908479  2.744486
Ni  2.807766  7.982371  2.666547
Ni  2.804397  9.886243  0.900495
Ni  1.011238  8.082328  0.896846
Ni  4.579446  9.830533  2.709736
Ni  6.444104  8.083534  2.715791
Ni  4.517600  8.001106  0.875356
Ni  0.932766  0.889344  0.872119
Ni  0.980353 11.688670  0.920674
Ni  4.553372 13.584753  2.735387
Ni  6.401364 13.547507  0.915305
Ni  2.756321 13.536722  0.911218
Ni  2.751736  0.927614  2.766671
Ni  2.781493  2.662212  0.865731
Ni  4.610824  2.662829  2.711972
Ni  6.400909  2.575203  0.911020
Ni  0.964077  4.462739  4.509368
Ni  6.452992  4.394587  6.347392
Ni  4.651212  4.478935  4.522652
Ni  1.010755  9.806531  6.344728
Ni  0.959661  8.014511  4.509375
Ni  2.861100  7.909581  6.421606
Ni  6.411271  8.117571  6.338300
Ni  6.443165  9.915730  4.469450
Ni  4.652557  8.040031  4.496822
Ni  0.959729 13.515296  6.345459
Ni  2.781358 11.614322  6.282798
Ni  2.696017 13.476064  4.471752
Ni  4.594010 13.480772  6.293206
Ni  6.428261 11.728049  6.337626
Ni  6.408818 13.505232  4.559376
Ni  4.514435 11.685022  4.537758
Ni  0.955629  2.707421  6.342624
Ni  2.760012  0.828762  6.387817
Ni  0.978855  0.908827  4.580680
Ni  4.651622  2.669887  6.340145
Ni  6.406809  0.840255  6.329130
Ni  6.417410  2.634667  4.541152
Ni  4.564523  0.836013  4.578963
Ni  0.941844  6.273219  9.959351
Ni  2.817921  4.354310  9.919095
Ni  2.807660  4.643977  6.319199
Ni  0.936168  4.475455  8.143706
Ni  4.651500  6.211966  9.935958
Ni  6.446328  4.490193  9.945150
Ni  6.467430  6.243724  8.125653
Ni  4.668600  4.471606  8.108129
Ni  0.974937 11.714701 11.731387
Ni  2.832076  8.077530  9.921404
Ni  2.887438  9.860096  8.098968
Ni  0.991301  8.050233  8.143481
Ni  6.388793  6.250475 11.773334
Ni  6.394420  9.889058  8.195792
Ni  6.403478  8.058556  9.993398
Ni  0.991999 13.504755  9.891489
Ni  2.773722 11.727936  9.919461
Ni  0.986620 11.643534  8.091758
Ni  6.428146 11.706039  9.968665
Ni  6.416389 13.503976  8.110491
Ni  4.638464 11.741735  8.146951
Ni  0.941963  2.661069  9.899668
Ni  4.632042  0.829026  8.106191
Ni  6.444251  0.842610  9.931994
Ni  6.467383  2.642251  8.107054
%ENDBLOCK POSITIONS_ABS

