#######################################################
#CASTEP cell file: /home/u2093113/Documents/kART/CASTEP/castep.cell
#Created using the Atomic Simulation Environment (ASE)#
#######################################################

%BLOCK LATTICE_CART
14.464828  0.000000  0.000000
 0.000000 14.464828  0.000000
 0.000000  0.000000 14.464828
%ENDBLOCK LATTICE_CART

%BLOCK POSITIONS_ABS
Al  8.230307  4.448684 11.769462
Al 11.848622  4.462020 11.757486
Al  8.226850  8.095883 11.809386
Al 11.858073  8.086379 11.769696
Al  8.311593 11.698063 11.693192
Al 11.883148 11.688044 11.742167
Al  8.250722  0.853818 11.761201
Al 11.862180  0.853190 11.741228
Al  8.225347  4.430263  0.894418
Al 11.848767  4.473589  0.895151
Al  8.288716  8.001754  0.874618
Al 11.855028  8.074511  0.904539
Al  8.399173 11.803868  0.915744
Al 11.874621 11.681873  0.908375
Al  8.305464  0.823827  0.834055
Al 11.884589  0.863286  0.891080
Al  8.180932  4.472048  4.506909
Al 11.827003  4.488393  4.514831
Al  8.166179  8.058570  4.507000
Al 11.820444  8.070214  4.506034
Al  8.300931 11.706488  4.579558
Al 11.891183 11.670933  4.526926
Al  8.350510  0.831698  4.620389
Al 11.837636  0.852909  4.529449
Al  8.259092  4.460107  8.158325
Al 11.807420  4.485978  8.138924
Al  8.209046  8.081069  8.165965
Al 11.826763  8.080456  8.139523
Al  8.234007 11.693442  8.157136
Al 11.841063 11.668328  8.155058
Al  8.252482  0.845076  8.132287
Al 11.879238  0.842944  8.152323
Al  4.764597  2.654244  9.920031
Al  0.824934  0.870826  8.118821
Al  2.804201  2.758702  8.011029
Al  4.663544 13.541145 10.010769
Al  2.780876 13.411118  8.046700
Al  4.608784  9.988439 10.067677
Al  0.988452  9.875551  9.926350
Al  2.857260  2.700340  4.642958
Al  0.868416 11.665162  4.650257
Al  4.729172  9.970392  6.340134
Al  2.792385  9.653042  4.532089
Al  4.927638  6.195260  6.155693
Al  4.712933  8.026807  8.243293
Al  2.769190  6.273834  4.415247
Al  0.820947  6.267857  6.334963
Al  4.545891  0.852547  0.902841
Al  6.374331  0.843450  2.821924
Al  2.640619  0.784592 13.533805
Al  0.915295  2.673776  2.656001
Al  6.249852 11.797347  2.758244
Al  0.898754 13.641324  2.663849
Al  2.888508 11.700177  2.614825
Al  6.236674  9.790576  0.862376
Al  4.887132  6.225809  2.747667
Al  2.727243  6.151859  0.904904
Al  2.697772  2.716236 11.719283
Al  6.287981 11.821511 13.496118
Al  2.762929 11.714039 13.551674
Al  2.800497  6.177410 11.664411
Al  2.760784  6.169221  8.304935
Al  2.766897  8.196319 13.531425
Ni  8.215281  6.242747 13.545270
Ni 10.047048  4.455280 13.564786
Ni 10.046766  6.275700 11.780933
Ni 11.860898  6.275293 13.566163
Ni 13.661975  4.478129 13.545073
Ni 13.640571  6.289462 11.755786
Ni  8.176035  9.976667 13.668918
Ni 10.044110  8.086021 13.571006
Ni 10.052147  9.881056 11.781044
Ni 11.867041  9.878098 13.575317
Ni 13.685830  8.076606 13.568835
Ni 13.674723  9.885309 11.766001
Ni  8.250686 13.462897 13.551221
Ni 10.081422 11.694047 13.548434
Ni 10.055383 13.507640 11.746039
Ni 11.870668 13.507354 13.535087
Ni 13.657998 11.687309 13.561048
Ni 13.672372 13.494560 11.732360
Ni  8.229909  2.650520 13.570895
Ni 10.077284  0.847697 13.543502
Ni 10.041069  2.656484 11.752360
Ni 11.855578  2.662405 13.536257
Ni 13.682985  0.857177 13.528678
Ni 13.668114  2.661497 11.741337
Ni  8.162782  6.245921  2.701991
Ni 10.014713  4.466252  2.709366
Ni 10.041135  6.249142  0.896165
Ni 11.823599  6.284575  2.689370
Ni 13.649528  4.492711  2.697472
Ni 13.674838  6.276193  0.888390
Ni  8.170319  9.994730  2.601978
Ni  9.987994  8.081368  2.707630
Ni 10.054451  9.887090  0.908453
Ni 11.849846  9.860088  2.714148
Ni 13.674251  8.076027  2.700529
Ni 13.685133  9.882219  0.918839
Ni  8.239366 13.524218  2.740248
Ni 10.081031 11.700417  2.732659
Ni 10.112118 13.532506  0.905471
Ni 11.889736 13.486569  2.720282
Ni 13.704722 11.673824  2.717581
Ni 13.653117 13.506781  0.872591
Ni  8.245351  2.566386  2.720086
Ni 10.086746  0.833517  2.713200
Ni 10.056695  2.650533  0.907018
Ni 11.849756  2.692302  2.713369
Ni 13.609434  0.887041  2.734516
Ni 13.625007  2.671047  0.859561
Ni  8.167365  6.264984  6.312649
Ni 10.017831  4.479601  6.317749
Ni  9.979187  6.275808  4.507221
Ni 11.838176  6.285221  6.322298
Ni 13.622905  4.445824  6.324919
Ni 13.614880  6.272435  4.473592
Ni  8.203780  9.889342  6.334841
Ni  9.993358  8.074799  6.316668
Ni 10.005285  9.874793  4.501212
Ni 11.816466  9.866928  6.320003
Ni 13.635541  8.103983  6.325401
Ni 13.662956  9.840450  4.521211
Ni  8.260026 13.504267  6.348200
Ni 10.054441 11.678845  6.350134
Ni 10.078235 13.487152  4.529862
Ni 11.855416 13.485751  6.342409
Ni 13.631233 11.654471  6.379375
Ni 13.665374 13.520225  4.544272
Ni  8.268469  2.646366  6.325315
Ni 10.087570  0.840050  6.366509
Ni 10.050912  2.668958  4.515224
Ni 11.826377  2.667777  6.331520
Ni 13.632600  0.872364  6.301792
Ni 13.635715  2.677411  4.534967
Ni  8.238511  6.281000  9.995798
Ni 10.033612  4.467672  9.967214
Ni 10.017042  6.288056  8.140116
Ni 11.818212  6.273204  9.965900
Ni 13.643130  4.480352  9.947334
Ni 13.612209  6.282979  8.176969
Ni  8.228600  9.873384  9.981281
Ni 10.035786  8.084368  9.974082
Ni 10.021920  9.869689  8.146951
Ni 11.858304  9.874098  9.952028
Ni 13.650249  8.066795  9.949498
Ni 13.649970  9.854910  8.120174
Ni  8.242131 13.516211  9.936980
Ni 10.060606 11.681567  9.942044
Ni 10.058881 13.495797  8.150169
Ni 11.847811 13.499661  9.948725
Ni 13.671682 11.701726  9.918742
Ni 13.642391 13.470483  8.128630
Ni  8.228823  2.654361  9.957615
Ni 10.049708  0.850868  9.946636
Ni 10.045984  2.659050  8.149856
Ni 11.846336  2.669147  9.953268
Ni 13.636920  0.842198  9.958675
Ni 13.602657  2.704030  8.135214
Ni  1.011326  6.282538 13.537153
Ni  2.786798  4.436247 13.546015
Ni  0.947346  4.488339 11.728173
Ni  4.551526  6.254895 13.556086
Ni  6.378360  4.430314 13.567910
Ni  4.592785  8.042350 11.767845
Ni  4.635084  4.411340 11.759741
Ni  0.980363  8.053824 11.754009
Ni  0.955922  9.903026 13.556674
Ni  4.605264  9.900587 13.503618
Ni  6.376858  8.047135 13.559050
Ni  6.431253  9.922103 11.802103
Ni  2.751715  9.911340 11.729837
Ni  0.941445 13.476855 13.560154
Ni  4.537311 11.753406 11.753372
Ni  2.748737 13.529704 11.702923
Ni  4.557359 13.598110 13.539981
Ni  4.611179 11.737998  0.856002
Ni  6.433527 13.539754 11.758083
Ni  0.969886  2.674673 13.535491
Ni  4.563768  0.903110 11.745538
Ni  0.986573  0.849500 11.689284
Ni  4.572016  2.611234 13.551438
Ni  6.413150  0.828292 13.534320
Ni  6.421528  2.634533 11.797587
Ni  2.779152  0.891666  9.849692
Ni  0.956461  6.244210  2.684695
Ni  2.825102  4.431992  2.718620
Ni  0.951963  4.446610  0.870326
Ni  6.438781  4.337336  2.678754
Ni  6.406193  6.244212  0.849820
Ni  4.605806  4.424466  0.894987
Ni  1.054084  9.906206  2.746907
Ni  2.823198  7.988314  2.662451
Ni  2.808711  9.887256  0.899739
Ni  1.015919  8.080771  0.900478
Ni  4.585500  9.843033  2.700991
Ni  6.453828  8.118800  2.675528
Ni  4.530103  7.999309  0.880417
Ni  0.930691  0.891646  0.876819
Ni  0.979255 11.688052  0.924862
Ni  4.553726 13.584325  2.735031
Ni  6.406663 13.548378  0.914468
Ni  2.752262 13.539017  0.912511
Ni  2.750014  0.926325  2.769554
Ni  2.784084  2.660931  0.866783
Ni  4.613539  2.643341  2.700445
Ni  6.406332  2.559041  0.898715
Ni  0.967681  4.465962  4.508626
Ni  6.468723  4.367328  6.355723
Ni  4.685370  4.449594  4.495129
Ni  1.022696  9.797299  6.342458
Ni  0.963585  8.016347  4.508080
Ni  2.901572  7.872988  6.418771
Ni  6.393829  8.127400  6.360114
Ni  6.444803  9.913580  4.473443
Ni  4.690711  8.048193  4.485822
Ni  0.959525 13.515150  6.343094
Ni  2.782450 11.613570  6.282836
Ni  2.698159 13.475398  4.474175
Ni  4.594971 13.482156  6.294951
Ni  6.432024 11.733429  6.340908
Ni  6.410392 13.504797  4.560273
Ni  4.517298 11.686014  4.537366
Ni  0.960271  2.715116  6.339300
Ni  2.760319  0.830944  6.387824
Ni  0.980367  0.911403  4.582032
Ni  4.654785  2.661358  6.344117
Ni  6.409996  0.839562  6.330956
Ni  6.426547  2.626596  4.537429
Ni  4.566558  0.835803  4.579100
Ni  0.939890  6.274529  9.961684
Ni  2.820256  4.351590  9.924049
Ni  2.824975  4.677820  6.310692
Ni  0.942856  4.481076  8.139353
Ni  4.650527  6.212871  9.960681
Ni  6.445402  4.486531  9.954798
Ni  6.457039  6.255593  8.160033
Ni  4.672951  4.466272  8.122286
Ni  0.971018 11.716320 11.732380
Ni  2.827627  8.085111  9.936615
Ni  2.893505  9.859579  8.100537
Ni  1.002550  8.047883  8.139170
Ni  6.394076  6.249865 11.780224
Ni  6.394936  9.902641  8.211919
Ni  6.412007  8.067219 10.015726
Ni  0.988285 13.507327  9.889895
Ni  2.768343 11.731281  9.921609
Ni  0.986253 11.641421  8.088833
Ni  6.433093 11.716409  9.975356
Ni  6.419963 13.506362  8.112683
Ni  4.638861 11.749578  8.154135
Ni  0.941541  2.665527  9.898371
Ni  4.631910  0.827795  8.107913
Ni  6.447056  0.839948  9.934903
Ni  6.472134  2.633557  8.116318
%ENDBLOCK POSITIONS_ABS

