#######################################################
#CASTEP cell file: /home/u2093113/Documents/kART/CASTEP/castep.cell
#Created using the Atomic Simulation Environment (ASE)#
#######################################################

%BLOCK LATTICE_CART
14.464828  0.000000  0.000000
 0.000000 14.464828  0.000000
 0.000000  0.000000 14.464828
%ENDBLOCK LATTICE_CART

%BLOCK POSITIONS_ABS
Al  8.221976  4.454652 11.763137
Al 11.841064  4.455550 11.758098
Al  8.211834  8.086407 11.796181
Al 11.851236  8.088177 11.770139
Al  8.295577 11.685619 11.689224
Al 11.873723 11.687696 11.742918
Al  8.235489  0.855827 11.761079
Al 11.851595  0.846346 11.742529
Al  8.212643  4.445594  0.922206
Al 11.856706  4.469101  0.879158
Al  8.281798  7.980736  0.904073
Al 11.865776  8.074517  0.887879
Al  8.389100 11.799899  0.915628
Al 11.869581 11.685756  0.898046
Al  8.290827  0.827242  0.833208
Al 11.876535  0.857494  0.881648
Al  8.307191  4.369974  4.519607
Al 11.843607  4.473783  4.513476
Al  8.296965  8.167567  4.500149
Al 11.840562  8.078159  4.504543
Al  8.298394 11.699751  4.574989
Al 11.905531 11.686490  4.523484
Al  8.342589  0.839758  4.622509
Al 11.845264  0.837949  4.528029
Al  8.272820  4.459649  8.139167
Al 11.819254  4.473900  8.153864
Al  8.220396  8.068946  8.142604
Al 11.838868  8.087012  8.150744
Al  8.226016 11.690788  8.156637
Al 11.836853 11.674100  8.161582
Al  8.240963  0.844141  8.133013
Al 11.875572  0.833919  8.158871
Al  4.768483  2.669136  9.905200
Al  0.826329  0.862742  8.126419
Al  2.801815  2.745846  8.019151
Al  4.669265 13.534393 10.005601
Al  2.786585 13.408990  8.049565
Al  4.610023  9.942559 10.019482
Al  0.992961  9.876489  9.926869
Al  2.842354  2.684599  4.639325
Al  0.859053 11.678721  4.649743
Al  4.722605  9.938612  6.318229
Al  2.760930  9.676107  4.532205
Al  6.325074  6.253237  4.742176
Al  4.714400  7.937969  8.114370
Al  2.797870  6.275191  4.507696
Al  0.807557  6.258875  6.340275
Al  4.544515  0.866752  0.909934
Al  6.364050  0.856731  2.829674
Al  2.650510  0.782376 13.529221
Al  0.908547  2.665784  2.649792
Al  6.242174 11.792431  2.759335
Al  0.901737 13.642118  2.654020
Al  2.889099 11.699832  2.613182
Al  6.230011  9.757006  0.893285
Al  4.710102  6.226444  2.623193
Al  2.671458  6.151652  0.865928
Al  2.704132  2.712971 11.710744
Al  6.279720 11.802288 13.499328
Al  2.774482 11.704702 13.545825
Al  2.807736  6.179056 11.651553
Al  2.747821  6.159646  8.263277
Al  2.759517  8.199858 13.517941
Ni  8.206843  6.242800 13.546887
Ni 10.037255  4.456973 13.565620
Ni 10.035993  6.275713 11.773967
Ni 11.859973  6.273774 13.556130
Ni 13.660650  4.470613 13.532223
Ni 13.641936  6.287792 11.749470
Ni  8.160694  9.962501 13.675178
Ni 10.031986  8.082672 13.571810
Ni 10.037602  9.875562 11.779250
Ni 11.862972  9.880502 13.567689
Ni 13.686057  8.079587 13.556538
Ni 13.674643  9.888926 11.762450
Ni  8.235964 13.458021 13.552181
Ni 10.067101 11.689093 13.546091
Ni 10.038597 13.503660 11.746677
Ni 11.861370 13.504978 13.531064
Ni 13.657893 11.688278 13.555297
Ni 13.672579 13.489338 11.733291
Ni  8.216980  2.661713 13.578441
Ni 10.061266  0.846688 13.541717
Ni 10.026978  2.655437 11.752843
Ni 11.847803  2.655132 13.529466
Ni 13.682406  0.849119 13.521949
Ni 13.667056  2.652254 11.739193
Ni  8.202958  6.244001  2.785241
Ni 10.044470  4.459514  2.697385
Ni 10.041982  6.246912  0.896329
Ni 11.841454  6.282557  2.672138
Ni 13.650194  4.484367  2.690914
Ni 13.681205  6.273658  0.879029
Ni  8.168669  9.978350  2.587081
Ni 10.027275  8.085074  2.693092
Ni 10.053963  9.886139  0.901418
Ni 11.861235  9.870359  2.701405
Ni 13.677022  8.076530  2.693691
Ni 13.685845  9.888462  0.909497
Ni  8.230284 13.526015  2.739873
Ni 10.076849 11.701352  2.724302
Ni 10.099175 13.531462  0.901610
Ni 11.886501 13.486359  2.710912
Ni 13.707377 11.680920  2.708120
Ni 13.652815 13.505845  0.863334
Ni  8.235430  2.571747  2.716597
Ni 10.080591  0.832215  2.707832
Ni 10.050038  2.650276  0.903153
Ni 11.856380  2.680536  2.703367
Ni 13.609754  0.879751  2.723146
Ni 13.623622  2.659331  0.848641
Ni  8.253127  6.260303  6.277529
Ni 10.061614  4.463959  6.333601
Ni 10.050811  6.274148  4.507005
Ni 11.855704  6.281912  6.334670
Ni 13.619176  4.435988  6.330098
Ni 13.613784  6.267195  4.473380
Ni  8.219245  9.899181  6.339068
Ni 10.033254  8.084406  6.327700
Ni 10.051684  9.908993  4.499551
Ni 11.828509  9.881386  6.326999
Ni 13.632372  8.104138  6.330372
Ni 13.665822  9.846559  4.518090
Ni  8.252216 13.500699  6.345608
Ni 10.058032 11.687407  6.351469
Ni 10.071602 13.487338  4.526481
Ni 11.853407 13.488828  6.345955
Ni 13.629584 11.666299  6.384481
Ni 13.667651 13.524738  4.541766
Ni  8.262819  2.646246  6.336471
Ni 10.080345  0.835654  6.368360
Ni 10.082547  2.637140  4.517066
Ni 11.836761  2.648567  6.338108
Ni 13.635557  0.863899  6.307682
Ni 13.637038  2.666616  4.532568
Ni  8.231360  6.280700  9.971842
Ni 10.031710  4.464801  9.966313
Ni 10.043367  6.284378  8.149382
Ni 11.822923  6.271270  9.975561
Ni 13.641666  4.471740  9.957023
Ni 13.610420  6.279344  8.188143
Ni  8.217869  9.859351  9.968005
Ni 10.035350  8.083296  9.970985
Ni 10.026073  9.873939  8.150416
Ni 11.855333  9.879171  9.957698
Ni 13.646027  8.070864  9.957286
Ni 13.647116  9.864436  8.128570
Ni  8.227828 13.510858  9.936067
Ni 10.048481 11.679141  9.944135
Ni 10.049286 13.494724  8.153324
Ni 11.839782 13.495936  9.954047
Ni 13.671609 11.703391  9.923806
Ni 13.641236 13.469490  8.136048
Ni  8.221274  2.657460  9.950279
Ni 10.037405  0.846048  9.950772
Ni 10.048258  2.649622  8.154025
Ni 11.842029  2.658265  9.960994
Ni 13.635858  0.833513  9.965026
Ni 13.602167  2.690299  8.145911
Ni  0.999629  6.280801 13.516242
Ni  2.779537  4.431194 13.532132
Ni  0.949493  4.484548 11.720659
Ni  4.547367  6.255677 13.557950
Ni  6.373582  4.437927 13.568701
Ni  4.592705  8.034481 11.755251
Ni  4.634592  4.416624 11.749516
Ni  0.984348  8.053682 11.741126
Ni  0.957548  9.904446 13.547670
Ni  4.608666  9.890826 13.505202
Ni  6.371891  8.040849 13.563066
Ni  6.420234  9.902957 11.787070
Ni  2.763635  9.900537 11.714701
Ni  0.948423 13.472486 13.555059
Ni  4.544169 11.728820 11.736720
Ni  2.759792 13.521866 11.699702
Ni  4.561249 13.589659 13.539575
Ni  4.612278 11.722211  0.865527
Ni  6.428757 13.530029 11.757782
Ni  0.971769  2.667058 13.525680
Ni  4.569006  0.902266 11.740196
Ni  0.992220  0.841240 11.688899
Ni  4.570110  2.613690 13.546333
Ni  6.405844  0.836805 13.540358
Ni  6.416325  2.641395 11.792656
Ni  2.785975  0.888412  9.849720
Ni  0.956434  6.237783  2.698113
Ni  2.801489  4.448193  2.719220
Ni  0.939260  4.434171  0.862779
Ni  6.423698  4.417454  2.758192
Ni  6.411343  6.246460  0.864346
Ni  4.592443  4.422825  0.881599
Ni  1.046451  9.910752  2.742065
Ni  2.792335  7.976428  2.670643
Ni  2.800083  9.885230  0.901251
Ni  1.006556  8.083885  0.893214
Ni  4.573391  9.818033  2.718481
Ni  6.434380  8.048268  2.756054
Ni  4.505096  8.002902  0.870294
Ni  0.934841  0.887043  0.867420
Ni  0.981452 11.689288  0.916486
Ni  4.553019 13.585181  2.735744
Ni  6.396065 13.546635  0.916142
Ni  2.760380 13.534427  0.909925
Ni  2.753459  0.928904  2.763787
Ni  2.778902  2.663492  0.864680
Ni  4.608110  2.682316  2.723499
Ni  6.395487  2.591365  0.923326
Ni  0.960472  4.459515  4.510110
Ni  6.437260  4.421845  6.339061
Ni  4.617054  4.508276  4.550176
Ni  0.998814  9.815762  6.346997
Ni  0.955736  8.012675  4.510671
Ni  2.820628  7.946175  6.424441
Ni  6.428713  8.107742  6.316486
Ni  6.441526  9.917880  4.465456
Ni  4.614404  8.031870  4.507823
Ni  0.959933 13.515442  6.347824
Ni  2.780267 11.615074  6.282761
Ni  2.693874 13.476730  4.469330
Ni  4.593049 13.479388  6.291461
Ni  6.424497 11.722668  6.334344
Ni  6.407243 13.505668  4.558480
Ni  4.511571 11.684030  4.538151
Ni  0.950987  2.699725  6.345947
Ni  2.759706  0.826580  6.387811
Ni  0.977344  0.906250  4.579328
Ni  4.648459  2.678416  6.336174
Ni  6.403622  0.840948  6.327304
Ni  6.408273  2.642737  4.544875
Ni  4.562488  0.836223  4.578827
Ni  0.943799  6.271909  9.957018
Ni  2.815585  4.357031  9.914141
Ni  2.790344  4.610133  6.327706
Ni  0.929480  4.469833  8.148060
Ni  4.652473  6.211061  9.911235
Ni  6.447254  4.493855  9.935503
Ni  6.477821  6.231855  8.091273
Ni  4.664250  4.476940  8.093971
Ni  0.978856 11.713083 11.730394
Ni  2.836525  8.069948  9.906192
Ni  2.881371  9.860612  8.097399
Ni  0.980052  8.052583  8.147792
Ni  6.383510  6.251084 11.766443
Ni  6.393903  9.875476  8.179664
Ni  6.394950  8.049893  9.971070
Ni  0.995713 13.502184  9.893083
Ni  2.779100 11.724591  9.917312
Ni  0.986987 11.645647  8.094684
Ni  6.423199 11.695669  9.961975
Ni  6.412815 13.501591  8.108299
Ni  4.638067 11.733891  8.139768
Ni  0.942385  2.656611  9.900964
Ni  4.632174  0.830257  8.104468
Ni  6.441445  0.845273  9.929085
Ni  6.462631  2.650946  8.097789
%ENDBLOCK POSITIONS_ABS

