%block lattice_abc 
  14.46482773 14.46482773 14.46482773 #lattice params 
 90.0  90.0  90.0 
     %endblock lattice_abc 
     fix_all_cell : true 
     %BLOCK POSITIONS_ABS 
Al  8.230307  4.448684 11.769462
 Al 11.848622  4.462020 11.757486
 Al  8.226850  8.095883 11.809386
 Al 11.858073  8.086379 11.769696
 Al  8.311593 11.698063 11.693192
 Al 11.883148 11.688044 11.742167
 Al  8.250722  0.853818 11.761201
 Al 11.862180  0.853190 11.741228
 Al  8.225347  4.430263  0.894418
 Al 11.848767  4.473589  0.895151
 Al  8.288716  8.001754  0.874618
 Al 11.855028  8.074511  0.904539
 Al  8.399173 11.803868  0.915744
 Al 11.874621 11.681873  0.908375
 Al  8.305464  0.823827  0.834055
 Al 11.884589  0.863286  0.891080
 Al  8.180932  4.472048  4.506909
 Al 11.827003  4.488393  4.514831
 Al  8.166179  8.058570  4.507000
 Al 11.820444  8.070214  4.506034
 Al  8.300931 11.706488  4.579558
 Al 11.891183 11.670933  4.526926
 Al  8.350510  0.831698  4.620389
 Al 11.837636  0.852909  4.529449
 Al  8.259092  4.460107  8.158325
 Al 11.807420  4.485978  8.138924
 Al  8.209046  8.081069  8.165965
 Al 11.826763  8.080456  8.139523
 Al  8.234007 11.693442  8.157136
 Al 11.841063 11.668328  8.155058
 Al  8.252482  0.845076  8.132287
 Al 11.879238  0.842944  8.152323
 Al  4.764597  2.654244  9.920031
 Al  0.824934  0.870826  8.118821
 Al  2.804201  2.758702  8.011029
 Al  4.663544 13.541145 10.010769
 Al  2.780876 13.411118  8.046700
 Al  4.608784  9.988439 10.067677
 Al  0.988452  9.875551  9.926350
 Al  2.857260  2.700340  4.642958
 Al  0.868416 11.665162  4.650257
 Al  4.729172  9.970392  6.340134
 Al  2.792385  9.653042  4.532089
 Al  4.927638  6.195260  6.155693
 Al  4.712933  8.026807  8.243293
 Al  2.769190  6.273834  4.415247
 Al  0.820947  6.267857  6.334963
 Al  4.545891  0.852547  0.902841
 Al  6.374331  0.843450  2.821924
 Al  2.640619  0.784592 13.533805
 Al  0.915295  2.673776  2.656001
 Al  6.249852 11.797347  2.758244
 Al  0.898754 13.641324  2.663849
 Al  2.888508 11.700177  2.614825
 Al  6.236674  9.790576  0.862376
 Al  4.887132  6.225809  2.747667
 Al  2.727243  6.151859  0.904904
 Al  2.697772  2.716236 11.719283
 Al  6.287981 11.821511 13.496118
 Al  2.762929 11.714039 13.551674
 Al  2.800497  6.177410 11.664411
 Al  2.760784  6.169221  8.304935
 Al  2.766897  8.196319 13.531425
 Ni  8.215281  6.242747 13.545270
 Ni 10.047048  4.455280 13.564786
 Ni 10.046766  6.275700 11.780933
 Ni 11.860898  6.275293 13.566163
 Ni 13.661975  4.478129 13.545073
 Ni 13.640571  6.289462 11.755786
 Ni  8.176035  9.976667 13.668918
 Ni 10.044110  8.086021 13.571006
 Ni 10.052147  9.881056 11.781044
 Ni 11.867041  9.878098 13.575317
 Ni 13.685830  8.076606 13.568835
 Ni 13.674723  9.885309 11.766001
 Ni  8.250686 13.462897 13.551221
 Ni 10.081422 11.694047 13.548434
 Ni 10.055383 13.507640 11.746039
 Ni 11.870668 13.507354 13.535087
 Ni 13.657998 11.687309 13.561048
 Ni 13.672372 13.494560 11.732360
 Ni  8.229909  2.650520 13.570895
 Ni 10.077284  0.847697 13.543502
 Ni 10.041069  2.656484 11.752360
 Ni 11.855578  2.662405 13.536257
 Ni 13.682985  0.857177 13.528678
 Ni 13.668114  2.661497 11.741337
 Ni  8.162782  6.245921  2.701991
 Ni 10.014713  4.466252  2.709366
 Ni 10.041135  6.249142  0.896165
 Ni 11.823599  6.284575  2.689370
 Ni 13.649528  4.492711  2.697472
 Ni 13.674838  6.276193  0.888390
 Ni  8.170319  9.994730  2.601978
 Ni  9.987994  8.081368  2.707630
 Ni 10.054451  9.887090  0.908453
 Ni 11.849846  9.860088  2.714148
 Ni 13.674251  8.076027  2.700529
 Ni 13.685133  9.882219  0.918839
 Ni  8.239366 13.524218  2.740248
 Ni 10.081031 11.700417  2.732659
 Ni 10.112118 13.532506  0.905471
 Ni 11.889736 13.486569  2.720282
 Ni 13.704722 11.673824  2.717581
 Ni 13.653117 13.506781  0.872591
 Ni  8.245351  2.566386  2.720086
 Ni 10.086746  0.833517  2.713200
 Ni 10.056695  2.650533  0.907018
 Ni 11.849756  2.692302  2.713369
 Ni 13.609434  0.887041  2.734516
 Ni 13.625007  2.671047  0.859561
 Ni  8.167365  6.264984  6.312649
 Ni 10.017831  4.479601  6.317749
 Ni  9.979187  6.275808  4.507221
 Ni 11.838176  6.285221  6.322298
 Ni 13.622905  4.445824  6.324919
 Ni 13.614880  6.272435  4.473592
 Ni  8.203780  9.889342  6.334841
 Ni  9.993358  8.074799  6.316668
 Ni 10.005285  9.874793  4.501212
 Ni 11.816466  9.866928  6.320003
 Ni 13.635541  8.103983  6.325401
 Ni 13.662956  9.840450  4.521211
 Ni  8.260026 13.504267  6.348200
 Ni 10.054441 11.678845  6.350134
 Ni 10.078235 13.487152  4.529862
 Ni 11.855416 13.485751  6.342409
 Ni 13.631233 11.654471  6.379375
 Ni 13.665374 13.520225  4.544272
 Ni  8.268469  2.646366  6.325315
 Ni 10.087570  0.840050  6.366509
 Ni 10.050912  2.668958  4.515224
 Ni 11.826377  2.667777  6.331520
 Ni 13.632600  0.872364  6.301792
 Ni 13.635715  2.677411  4.534967
 Ni  8.238511  6.281000  9.995798
 Ni 10.033612  4.467672  9.967214
 Ni 10.017042  6.288056  8.140116
 Ni 11.818212  6.273204  9.965900
 Ni 13.643130  4.480352  9.947334
 Ni 13.612209  6.282979  8.176969
 Ni  8.228600  9.873384  9.981281
 Ni 10.035786  8.084368  9.974082
 Ni 10.021920  9.869689  8.146951
 Ni 11.858304  9.874098  9.952028
 Ni 13.650249  8.066795  9.949498
 Ni 13.649970  9.854910  8.120174
 Ni  8.242131 13.516211  9.936980
 Ni 10.060606 11.681567  9.942044
 Ni 10.058881 13.495797  8.150169
 Ni 11.847811 13.499661  9.948725
 Ni 13.671682 11.701726  9.918742
 Ni 13.642391 13.470483  8.128630
 Ni  8.228823  2.654361  9.957615
 Ni 10.049708  0.850868  9.946636
 Ni 10.045984  2.659050  8.149856
 Ni 11.846336  2.669147  9.953268
 Ni 13.636920  0.842198  9.958675
 Ni 13.602657  2.704030  8.135214
 Ni  1.011326  6.282538 13.537153
 Ni  2.786798  4.436247 13.546015
 Ni  0.947346  4.488339 11.728173
 Ni  4.551526  6.254895 13.556086
 Ni  6.378360  4.430314 13.567910
 Ni  4.592785  8.042350 11.767845
 Ni  4.635084  4.411340 11.759741
 Ni  0.980363  8.053824 11.754009
 Ni  0.955922  9.903026 13.556674
 Ni  4.605264  9.900587 13.503618
 Ni  6.376858  8.047135 13.559050
 Ni  6.431253  9.922103 11.802103
 Ni  2.751715  9.911340 11.729837
 Ni  0.941445 13.476855 13.560154
 Ni  4.537311 11.753406 11.753372
 Ni  2.748737 13.529704 11.702923
 Ni  4.557359 13.598110 13.539981
 Ni  4.611179 11.737998  0.856002
 Ni  6.433527 13.539754 11.758083
 Ni  0.969886  2.674673 13.535491
 Ni  4.563768  0.903110 11.745538
 Ni  0.986573  0.849500 11.689284
 Ni  4.572016  2.611234 13.551438
 Ni  6.413150  0.828292 13.534320
 Ni  6.421528  2.634533 11.797587
 Ni  2.779152  0.891666  9.849692
 Ni  0.956461  6.244210  2.684695
 Ni  2.825102  4.431992  2.718620
 Ni  0.951963  4.446610  0.870326
 Ni  6.438781  4.337336  2.678754
 Ni  6.406193  6.244212  0.849820
 Ni  4.605806  4.424466  0.894987
 Ni  1.054084  9.906206  2.746907
 Ni  2.823198  7.988314  2.662451
 Ni  2.808711  9.887256  0.899739
 Ni  1.015919  8.080771  0.900478
 Ni  4.585500  9.843033  2.700991
 Ni  6.453828  8.118800  2.675528
 Ni  4.530103  7.999309  0.880417
 Ni  0.930691  0.891646  0.876819
 Ni  0.979255 11.688052  0.924862
 Ni  4.553726 13.584325  2.735031
 Ni  6.406663 13.548378  0.914468
 Ni  2.752262 13.539017  0.912511
 Ni  2.750014  0.926325  2.769554
 Ni  2.784084  2.660931  0.866783
 Ni  4.613539  2.643341  2.700445
 Ni  6.406332  2.559041  0.898715
 Ni  0.967681  4.465962  4.508626
 Ni  6.468723  4.367328  6.355723
 Ni  4.685370  4.449594  4.495129
 Ni  1.022696  9.797299  6.342458
 Ni  0.963585  8.016347  4.508080
 Ni  2.901572  7.872988  6.418771
 Ni  6.393829  8.127400  6.360114
 Ni  6.444803  9.913580  4.473443
 Ni  4.690711  8.048193  4.485822
 Ni  0.959525 13.515150  6.343094
 Ni  2.782450 11.613570  6.282836
 Ni  2.698159 13.475398  4.474175
 Ni  4.594971 13.482156  6.294951
 Ni  6.432024 11.733429  6.340908
 Ni  6.410392 13.504797  4.560273
 Ni  4.517298 11.686014  4.537366
 Ni  0.960271  2.715116  6.339300
 Ni  2.760319  0.830944  6.387824
 Ni  0.980367  0.911403  4.582032
 Ni  4.654785  2.661358  6.344117
 Ni  6.409996  0.839562  6.330956
 Ni  6.426547  2.626596  4.537429
 Ni  4.566558  0.835803  4.579100
 Ni  0.939890  6.274529  9.961684
 Ni  2.820256  4.351590  9.924049
 Ni  2.824975  4.677820  6.310692
 Ni  0.942856  4.481076  8.139353
 Ni  4.650527  6.212871  9.960681
 Ni  6.445402  4.486531  9.954798
 Ni  6.457039  6.255593  8.160033
 Ni  4.672951  4.466272  8.122286
 Ni  0.971018 11.716320 11.732380
 Ni  2.827627  8.085111  9.936615
 Ni  2.893505  9.859579  8.100537
 Ni  1.002550  8.047883  8.139170
 Ni  6.394076  6.249865 11.780224
 Ni  6.394936  9.902641  8.211919
 Ni  6.412007  8.067219 10.015726
 Ni  0.988285 13.507327  9.889895
 Ni  2.768343 11.731281  9.921609
 Ni  0.986253 11.641421  8.088833
 Ni  6.433093 11.716409  9.975356
 Ni  6.419963 13.506362  8.112683
 Ni  4.638861 11.749578  8.154135
 Ni  0.941541  2.665527  9.898371
 Ni  4.631910  0.827795  8.107913
 Ni  6.447056  0.839948  9.934903
 Ni  6.472134  2.633557  8.116318
 %ENDBLOCK POSITIONS_ABS
 
%block positions_abs_product 
     ang 
Al  8.221976  4.454652 11.763137
 Al 11.841064  4.455550 11.758098
 Al  8.211834  8.086407 11.796181
 Al 11.851236  8.088177 11.770139
 Al  8.295577 11.685619 11.689224
 Al 11.873723 11.687696 11.742918
 Al  8.235489  0.855827 11.761079
 Al 11.851595  0.846346 11.742529
 Al  8.212643  4.445594  0.922206
 Al 11.856706  4.469101  0.879158
 Al  8.281798  7.980736  0.904073
 Al 11.865776  8.074517  0.887879
 Al  8.389100 11.799899  0.915628
 Al 11.869581 11.685756  0.898046
 Al  8.290827  0.827242  0.833208
 Al 11.876535  0.857494  0.881648
 Al  8.307191  4.369974  4.519607
 Al 11.843607  4.473783  4.513476
 Al  8.296965  8.167567  4.500149
 Al 11.840562  8.078159  4.504543
 Al  8.298394 11.699751  4.574989
 Al 11.905531 11.686490  4.523484
 Al  8.342589  0.839758  4.622509
 Al 11.845264  0.837949  4.528029
 Al  8.272820  4.459649  8.139167
 Al 11.819254  4.473900  8.153864
 Al  8.220396  8.068946  8.142604
 Al 11.838868  8.087012  8.150744
 Al  8.226016 11.690788  8.156637
 Al 11.836853 11.674100  8.161582
 Al  8.240963  0.844141  8.133013
 Al 11.875572  0.833919  8.158871
 Al  4.768483  2.669136  9.905200
 Al  0.826329  0.862742  8.126419
 Al  2.801815  2.745846  8.019151
 Al  4.669265 13.534393 10.005601
 Al  2.786585 13.408990  8.049565
 Al  4.610023  9.942559 10.019482
 Al  0.992961  9.876489  9.926869
 Al  2.842354  2.684599  4.639325
 Al  0.859053 11.678721  4.649743
 Al  4.722605  9.938612  6.318229
 Al  2.760930  9.676107  4.532205
 Al  6.325074  6.253237  4.742176
 Al  4.714400  7.937969  8.114370
 Al  2.797870  6.275191  4.507696
 Al  0.807557  6.258875  6.340275
 Al  4.544515  0.866752  0.909934
 Al  6.364050  0.856731  2.829674
 Al  2.650510  0.782376 13.529221
 Al  0.908547  2.665784  2.649792
 Al  6.242174 11.792431  2.759335
 Al  0.901737 13.642118  2.654020
 Al  2.889099 11.699832  2.613182
 Al  6.230011  9.757006  0.893285
 Al  4.710102  6.226444  2.623193
 Al  2.671458  6.151652  0.865928
 Al  2.704132  2.712971 11.710744
 Al  6.279720 11.802288 13.499328
 Al  2.774482 11.704702 13.545825
 Al  2.807736  6.179056 11.651553
 Al  2.747821  6.159646  8.263277
 Al  2.759517  8.199858 13.517941
 Ni  8.206843  6.242800 13.546887
 Ni 10.037255  4.456973 13.565620
 Ni 10.035993  6.275713 11.773967
 Ni 11.859973  6.273774 13.556130
 Ni 13.660650  4.470613 13.532223
 Ni 13.641936  6.287792 11.749470
 Ni  8.160694  9.962501 13.675178
 Ni 10.031986  8.082672 13.571810
 Ni 10.037602  9.875562 11.779250
 Ni 11.862972  9.880502 13.567689
 Ni 13.686057  8.079587 13.556538
 Ni 13.674643  9.888926 11.762450
 Ni  8.235964 13.458021 13.552181
 Ni 10.067101 11.689093 13.546091
 Ni 10.038597 13.503660 11.746677
 Ni 11.861370 13.504978 13.531064
 Ni 13.657893 11.688278 13.555297
 Ni 13.672579 13.489338 11.733291
 Ni  8.216980  2.661713 13.578441
 Ni 10.061266  0.846688 13.541717
 Ni 10.026978  2.655437 11.752843
 Ni 11.847803  2.655132 13.529466
 Ni 13.682406  0.849119 13.521949
 Ni 13.667056  2.652254 11.739193
 Ni  8.202958  6.244001  2.785241
 Ni 10.044470  4.459514  2.697385
 Ni 10.041982  6.246912  0.896329
 Ni 11.841454  6.282557  2.672138
 Ni 13.650194  4.484367  2.690914
 Ni 13.681205  6.273658  0.879029
 Ni  8.168669  9.978350  2.587081
 Ni 10.027275  8.085074  2.693092
 Ni 10.053963  9.886139  0.901418
 Ni 11.861235  9.870359  2.701405
 Ni 13.677022  8.076530  2.693691
 Ni 13.685845  9.888462  0.909497
 Ni  8.230284 13.526015  2.739873
 Ni 10.076849 11.701352  2.724302
 Ni 10.099175 13.531462  0.901610
 Ni 11.886501 13.486359  2.710912
 Ni 13.707377 11.680920  2.708120
 Ni 13.652815 13.505845  0.863334
 Ni  8.235430  2.571747  2.716597
 Ni 10.080591  0.832215  2.707832
 Ni 10.050038  2.650276  0.903153
 Ni 11.856380  2.680536  2.703367
 Ni 13.609754  0.879751  2.723146
 Ni 13.623622  2.659331  0.848641
 Ni  8.253127  6.260303  6.277529
 Ni 10.061614  4.463959  6.333601
 Ni 10.050811  6.274148  4.507005
 Ni 11.855704  6.281912  6.334670
 Ni 13.619176  4.435988  6.330098
 Ni 13.613784  6.267195  4.473380
 Ni  8.219245  9.899181  6.339068
 Ni 10.033254  8.084406  6.327700
 Ni 10.051684  9.908993  4.499551
 Ni 11.828509  9.881386  6.326999
 Ni 13.632372  8.104138  6.330372
 Ni 13.665822  9.846559  4.518090
 Ni  8.252216 13.500699  6.345608
 Ni 10.058032 11.687407  6.351469
 Ni 10.071602 13.487338  4.526481
 Ni 11.853407 13.488828  6.345955
 Ni 13.629584 11.666299  6.384481
 Ni 13.667651 13.524738  4.541766
 Ni  8.262819  2.646246  6.336471
 Ni 10.080345  0.835654  6.368360
 Ni 10.082547  2.637140  4.517066
 Ni 11.836761  2.648567  6.338108
 Ni 13.635557  0.863899  6.307682
 Ni 13.637038  2.666616  4.532568
 Ni  8.231360  6.280700  9.971842
 Ni 10.031710  4.464801  9.966313
 Ni 10.043367  6.284378  8.149382
 Ni 11.822923  6.271270  9.975561
 Ni 13.641666  4.471740  9.957023
 Ni 13.610420  6.279344  8.188143
 Ni  8.217869  9.859351  9.968005
 Ni 10.035350  8.083296  9.970985
 Ni 10.026073  9.873939  8.150416
 Ni 11.855333  9.879171  9.957698
 Ni 13.646027  8.070864  9.957286
 Ni 13.647116  9.864436  8.128570
 Ni  8.227828 13.510858  9.936067
 Ni 10.048481 11.679141  9.944135
 Ni 10.049286 13.494724  8.153324
 Ni 11.839782 13.495936  9.954047
 Ni 13.671609 11.703391  9.923806
 Ni 13.641236 13.469490  8.136048
 Ni  8.221274  2.657460  9.950279
 Ni 10.037405  0.846048  9.950772
 Ni 10.048258  2.649622  8.154025
 Ni 11.842029  2.658265  9.960994
 Ni 13.635858  0.833513  9.965026
 Ni 13.602167  2.690299  8.145911
 Ni  0.999629  6.280801 13.516242
 Ni  2.779537  4.431194 13.532132
 Ni  0.949493  4.484548 11.720659
 Ni  4.547367  6.255677 13.557950
 Ni  6.373582  4.437927 13.568701
 Ni  4.592705  8.034481 11.755251
 Ni  4.634592  4.416624 11.749516
 Ni  0.984348  8.053682 11.741126
 Ni  0.957548  9.904446 13.547670
 Ni  4.608666  9.890826 13.505202
 Ni  6.371891  8.040849 13.563066
 Ni  6.420234  9.902957 11.787070
 Ni  2.763635  9.900537 11.714701
 Ni  0.948423 13.472486 13.555059
 Ni  4.544169 11.728820 11.736720
 Ni  2.759792 13.521866 11.699702
 Ni  4.561249 13.589659 13.539575
 Ni  4.612278 11.722211  0.865527
 Ni  6.428757 13.530029 11.757782
 Ni  0.971769  2.667058 13.525680
 Ni  4.569006  0.902266 11.740196
 Ni  0.992220  0.841240 11.688899
 Ni  4.570110  2.613690 13.546333
 Ni  6.405844  0.836805 13.540358
 Ni  6.416325  2.641395 11.792656
 Ni  2.785975  0.888412  9.849720
 Ni  0.956434  6.237783  2.698113
 Ni  2.801489  4.448193  2.719220
 Ni  0.939260  4.434171  0.862779
 Ni  6.423698  4.417454  2.758192
 Ni  6.411343  6.246460  0.864346
 Ni  4.592443  4.422825  0.881599
 Ni  1.046451  9.910752  2.742065
 Ni  2.792335  7.976428  2.670643
 Ni  2.800083  9.885230  0.901251
 Ni  1.006556  8.083885  0.893214
 Ni  4.573391  9.818033  2.718481
 Ni  6.434380  8.048268  2.756054
 Ni  4.505096  8.002902  0.870294
 Ni  0.934841  0.887043  0.867420
 Ni  0.981452 11.689288  0.916486
 Ni  4.553019 13.585181  2.735744
 Ni  6.396065 13.546635  0.916142
 Ni  2.760380 13.534427  0.909925
 Ni  2.753459  0.928904  2.763787
 Ni  2.778902  2.663492  0.864680
 Ni  4.608110  2.682316  2.723499
 Ni  6.395487  2.591365  0.923326
 Ni  0.960472  4.459515  4.510110
 Ni  6.437260  4.421845  6.339061
 Ni  4.617054  4.508276  4.550176
 Ni  0.998814  9.815762  6.346997
 Ni  0.955736  8.012675  4.510671
 Ni  2.820628  7.946175  6.424441
 Ni  6.428713  8.107742  6.316486
 Ni  6.441526  9.917880  4.465456
 Ni  4.614404  8.031870  4.507823
 Ni  0.959933 13.515442  6.347824
 Ni  2.780267 11.615074  6.282761
 Ni  2.693874 13.476730  4.469330
 Ni  4.593049 13.479388  6.291461
 Ni  6.424497 11.722668  6.334344
 Ni  6.407243 13.505668  4.558480
 Ni  4.511571 11.684030  4.538151
 Ni  0.950987  2.699725  6.345947
 Ni  2.759706  0.826580  6.387811
 Ni  0.977344  0.906250  4.579328
 Ni  4.648459  2.678416  6.336174
 Ni  6.403622  0.840948  6.327304
 Ni  6.408273  2.642737  4.544875
 Ni  4.562488  0.836223  4.578827
 Ni  0.943799  6.271909  9.957018
 Ni  2.815585  4.357031  9.914141
 Ni  2.790344  4.610133  6.327706
 Ni  0.929480  4.469833  8.148060
 Ni  4.652473  6.211061  9.911235
 Ni  6.447254  4.493855  9.935503
 Ni  6.477821  6.231855  8.091273
 Ni  4.664250  4.476940  8.093971
 Ni  0.978856 11.713083 11.730394
 Ni  2.836525  8.069948  9.906192
 Ni  2.881371  9.860612  8.097399
 Ni  0.980052  8.052583  8.147792
 Ni  6.383510  6.251084 11.766443
 Ni  6.393903  9.875476  8.179664
 Ni  6.394950  8.049893  9.971070
 Ni  0.995713 13.502184  9.893083
 Ni  2.779100 11.724591  9.917312
 Ni  0.986987 11.645647  8.094684
 Ni  6.423199 11.695669  9.961975
 Ni  6.412815 13.501591  8.108299
 Ni  4.638067 11.733891  8.139768
 Ni  0.942385  2.656611  9.900964
 Ni  4.632174  0.830257  8.104468
 Ni  6.441445  0.845273  9.929085
 Ni  6.462631  2.650946  8.097789
%endblock positions_abs_product 
%block positions_abs_intermediate 
     ang 
Al  8.226142  4.451668 11.766299
 Al 11.844843  4.458785 11.757792
 Al  8.219342  8.091145 11.802783
 Al 11.854655  8.087278 11.769917
 Al  8.303585 11.691841 11.691208
 Al 11.878435 11.687870 11.742542
 Al  8.243105  0.854822 11.761140
 Al 11.856887  0.849768 11.741879
 Al  8.218995  4.437928  0.908312
 Al 11.852736  4.471345  0.887154
 Al  8.285257  7.991245  0.889346
 Al 11.860402  8.074514  0.896209
 Al  8.394137 11.801884  0.915686
 Al 11.872101 11.683815  0.903211
 Al  8.298146  0.825535  0.833631
 Al 11.880562  0.860390  0.886364
 Al  8.244062  4.421011  4.513258
 Al 11.835305  4.481088  4.514154
 Al  8.231572  8.113069  4.503574
 Al 11.830503  8.074186  4.505288
 Al  8.299663 11.703119  4.577274
 Al 11.898357 11.678712  4.525205
 Al  8.346549  0.835728  4.621449
 Al 11.841450  0.845429  4.528739
 Al  8.265956  4.459878  8.148746
 Al 11.813337  4.479939  8.146394
 Al  8.214721  8.075008  8.154284
 Al 11.832815  8.083734  8.145134
 Al  8.230011 11.692115  8.156886
 Al 11.838958 11.671214  8.158320
 Al  8.246723  0.844609  8.132650
 Al 11.877405  0.838432  8.155597
 Al  4.766540  2.661690  9.912616
 Al  0.825632  0.866784  8.122620
 Al  2.803008  2.752274  8.015090
 Al  4.666405 13.537769 10.008185
 Al  2.783731 13.410054  8.048133
 Al  4.609403  9.965499 10.043579
 Al  0.990707  9.876020  9.926609
 Al  2.849807  2.692470  4.641141
 Al  0.863734 11.671942  4.650000
 Al  4.725889  9.954502  6.329182
 Al  2.776657  9.664574  4.532147
 Al  5.626356  6.224248  5.448935
 Al  4.713666  7.982388  8.178831
 Al  2.783530  6.274513  4.461472
 Al  0.814252  6.263366  6.337619
 Al  4.545203  0.859650  0.906388
 Al  6.369190  0.850090  2.825799
 Al  2.645564  0.783484 13.531513
 Al  0.911921  2.669780  2.652897
 Al  6.246013 11.794889  2.758790
 Al  0.900245 13.641721  2.658935
 Al  2.888803 11.700005  2.614003
 Al  6.233343  9.773791  0.877831
 Al  4.798617  6.226126  2.685430
 Al  2.699350  6.151756  0.885416
 Al  2.700952  2.714603 11.715013
 Al  6.283850 11.811900 13.497723
 Al  2.768705 11.709371 13.548749
 Al  2.804116  6.178233 11.657982
 Al  2.754303  6.164434  8.284106
 Al  2.763207  8.198088 13.524683
 Ni  8.211062  6.242773 13.546078
 Ni 10.042152  4.456126 13.565203
 Ni 10.041380  6.275707 11.777450
 Ni 11.860436  6.274533 13.561146
 Ni 13.661313  4.474371 13.538648
 Ni 13.641253  6.288627 11.752628
 Ni  8.168365  9.969584 13.672048
 Ni 10.038048  8.084346 13.571408
 Ni 10.044875  9.878309 11.780147
 Ni 11.865007  9.879300 13.571503
 Ni 13.685944  8.078096 13.562687
 Ni 13.674683  9.887117 11.764225
 Ni  8.243325 13.460459 13.551701
 Ni 10.074261 11.691570 13.547262
 Ni 10.046990 13.505650 11.746358
 Ni 11.866019 13.506166 13.533075
 Ni 13.657946 11.687794 13.558172
 Ni 13.672476 13.491949 11.732826
 Ni  8.223444  2.656117 13.574668
 Ni 10.069275  0.847192 13.542610
 Ni 10.034024  2.655960 11.752602
 Ni 11.851690  2.658768 13.532862
 Ni 13.682696  0.853148 13.525314
 Ni 13.667585  2.656876 11.740265
 Ni  8.182870  6.244961  2.743616
 Ni 10.029592  4.462883  2.703376
 Ni 10.041558  6.248027  0.896247
 Ni 11.832527  6.283566  2.680754
 Ni 13.649861  4.488539  2.694193
 Ni 13.678022  6.274926  0.883710
 Ni  8.169494  9.986540  2.594529
 Ni 10.007635  8.083221  2.700361
 Ni 10.054207  9.886614  0.904935
 Ni 11.855541  9.865223  2.707776
 Ni 13.675636  8.076278  2.697110
 Ni 13.685489  9.885340  0.914168
 Ni  8.234825 13.525116  2.740061
 Ni 10.078940 11.700884  2.728481
 Ni 10.105646 13.531984  0.903541
 Ni 11.888119 13.486464  2.715597
 Ni 13.706050 11.677372  2.712850
 Ni 13.652966 13.506313  0.867963
 Ni  8.240391  2.569066  2.718341
 Ni 10.083668  0.832866  2.710516
 Ni 10.053367  2.650404  0.905085
 Ni 11.853068  2.686419  2.708368
 Ni 13.609594  0.883396  2.728831
 Ni 13.624314  2.665189  0.854101
 Ni  8.210246  6.262643  6.295089
 Ni 10.039722  4.471780  6.325675
 Ni 10.014999  6.274978  4.507113
 Ni 11.846940  6.283566  6.328484
 Ni 13.621040  4.440906  6.327509
 Ni 13.614332  6.269815  4.473486
 Ni  8.211512  9.894262  6.336955
 Ni 10.013306  8.079603  6.322184
 Ni 10.028485  9.891893  4.500381
 Ni 11.822488  9.874157  6.323501
 Ni 13.633957  8.104061  6.327886
 Ni 13.664389  9.843505  4.519650
 Ni  8.256121 13.502483  6.346904
 Ni 10.056236 11.683126  6.350801
 Ni 10.074919 13.487245  4.528171
 Ni 11.854412 13.487289  6.344182
 Ni 13.630408 11.660385  6.381928
 Ni 13.666512 13.522481  4.543019
 Ni  8.265644  2.646306  6.330893
 Ni 10.083958  0.837852  6.367435
 Ni 10.066730  2.653049  4.516145
 Ni 11.831569  2.658172  6.334814
 Ni 13.634079  0.868131  6.304737
 Ni 13.636377  2.672013  4.533768
 Ni  8.234936  6.280850  9.983820
 Ni 10.032661  4.466236  9.966764
 Ni 10.030204  6.286217  8.144749
 Ni 11.820567  6.272237  9.970730
 Ni 13.642398  4.476046  9.952178
 Ni 13.611315  6.281162  8.182556
 Ni  8.223234  9.866368  9.974643
 Ni 10.035568  8.083832  9.972533
 Ni 10.023996  9.871814  8.148684
 Ni 11.856819  9.876635  9.954863
 Ni 13.648138  8.068829  9.953392
 Ni 13.648543  9.859673  8.124372
 Ni  8.234979 13.513534  9.936523
 Ni 10.054544 11.680354  9.943090
 Ni 10.054083 13.495261  8.151746
 Ni 11.843797 13.497799  9.951386
 Ni 13.671645 11.702558  9.921274
 Ni 13.641813 13.469987  8.132339
 Ni  8.225048  2.655911  9.953947
 Ni 10.043557  0.848458  9.948704
 Ni 10.047121  2.654336  8.151941
 Ni 11.844183  2.663706  9.957131
 Ni 13.636389  0.837856  9.961850
 Ni 13.602412  2.697164  8.140563
 Ni  1.005478  6.281669 13.526698
 Ni  2.783167  4.433721 13.539074
 Ni  0.948420  4.486443 11.724416
 Ni  4.549447  6.255286 13.557018
 Ni  6.375971  4.434120 13.568305
 Ni  4.592745  8.038416 11.761548
 Ni  4.634838  4.413982 11.754628
 Ni  0.982355  8.053753 11.747567
 Ni  0.956735  9.903736 13.552172
 Ni  4.606965  9.895707 13.504410
 Ni  6.374375  8.043992 13.561058
 Ni  6.425744  9.912530 11.794587
 Ni  2.757675  9.905939 11.722269
 Ni  0.944934 13.474670 13.557607
 Ni  4.540740 11.741113 11.745046
 Ni  2.754264 13.525785 11.701312
 Ni  4.559304 13.593885 13.539778
 Ni  4.611729 11.730105  0.860764
 Ni  6.431142 13.534891 11.757932
 Ni  0.970827  2.670866 13.530586
 Ni  4.566387  0.902688 11.742867
 Ni  0.989396  0.845370 11.689092
 Ni  4.571063  2.612462 13.548885
 Ni  6.409497  0.832549 13.537339
 Ni  6.418926  2.637964 11.795121
 Ni  2.782563  0.890039  9.849706
 Ni  0.956448  6.240997  2.691404
 Ni  2.813295  4.440093  2.718920
 Ni  0.945612  4.440391  0.866553
 Ni  6.431239  4.377395  2.718473
 Ni  6.408768  6.245336  0.857083
 Ni  4.599124  4.423645  0.888293
 Ni  1.050268  9.908479  2.744486
 Ni  2.807766  7.982371  2.666547
 Ni  2.804397  9.886243  0.900495
 Ni  1.011238  8.082328  0.896846
 Ni  4.579446  9.830533  2.709736
 Ni  6.444104  8.083534  2.715791
 Ni  4.517600  8.001106  0.875356
 Ni  0.932766  0.889344  0.872119
 Ni  0.980353 11.688670  0.920674
 Ni  4.553372 13.584753  2.735387
 Ni  6.401364 13.547507  0.915305
 Ni  2.756321 13.536722  0.911218
 Ni  2.751736  0.927614  2.766671
 Ni  2.781493  2.662212  0.865731
 Ni  4.610824  2.662829  2.711972
 Ni  6.400909  2.575203  0.911020
 Ni  0.964077  4.462739  4.509368
 Ni  6.452992  4.394587  6.347392
 Ni  4.651212  4.478935  4.522652
 Ni  1.010755  9.806531  6.344728
 Ni  0.959661  8.014511  4.509375
 Ni  2.861100  7.909581  6.421606
 Ni  6.411271  8.117571  6.338300
 Ni  6.443165  9.915730  4.469450
 Ni  4.652557  8.040031  4.496822
 Ni  0.959729 13.515296  6.345459
 Ni  2.781358 11.614322  6.282798
 Ni  2.696017 13.476064  4.471752
 Ni  4.594010 13.480772  6.293206
 Ni  6.428261 11.728049  6.337626
 Ni  6.408818 13.505232  4.559376
 Ni  4.514435 11.685022  4.537758
 Ni  0.955629  2.707421  6.342624
 Ni  2.760012  0.828762  6.387817
 Ni  0.978855  0.908827  4.580680
 Ni  4.651622  2.669887  6.340145
 Ni  6.406809  0.840255  6.329130
 Ni  6.417410  2.634667  4.541152
 Ni  4.564523  0.836013  4.578963
 Ni  0.941844  6.273219  9.959351
 Ni  2.817921  4.354310  9.919095
 Ni  2.807660  4.643977  6.319199
 Ni  0.936168  4.475455  8.143706
 Ni  4.651500  6.211966  9.935958
 Ni  6.446328  4.490193  9.945150
 Ni  6.467430  6.243724  8.125653
 Ni  4.668600  4.471606  8.108129
 Ni  0.974937 11.714701 11.731387
 Ni  2.832076  8.077530  9.921404
 Ni  2.887438  9.860096  8.098968
 Ni  0.991301  8.050233  8.143481
 Ni  6.388793  6.250475 11.773334
 Ni  6.394420  9.889058  8.195792
 Ni  6.403478  8.058556  9.993398
 Ni  0.991999 13.504755  9.891489
 Ni  2.773722 11.727936  9.919461
 Ni  0.986620 11.643534  8.091758
 Ni  6.428146 11.706039  9.968665
 Ni  6.416389 13.503976  8.110491
 Ni  4.638464 11.741735  8.146951
 Ni  0.941963  2.661069  9.899668
 Ni  4.632042  0.829026  8.106191
 Ni  6.444251  0.842610  9.931994
 Ni  6.467383  2.642251  8.107054
%endblock positions_abs_intermediate 
     kpoint_mp_grid 1 1 1 
     fix_com : false