#######################################################
#CASTEP cell file: /home/u2093113/Documents/kART/barriers/CASTEP/castep.cell
#Created using the Atomic Simulation Environment (ASE)#
#######################################################

%BLOCK LATTICE_CART
14.464828  0.000000  0.000000
 0.000000 14.464828  0.000000
 0.000000  0.000000 14.464828
%ENDBLOCK LATTICE_CART

%BLOCK POSITIONS_ABS
Ni  9.998491  0.921784  2.740324
Ni 11.821487 13.563500  2.742185
Ni 11.820296  0.920242  0.948353
Al 10.036696 13.561527  0.962299
Ni 13.617580  0.920041  2.742221
Al 13.623014 13.574778  0.935949
Ni 10.001439  4.619234  2.724309
Ni 11.808519  2.744743  2.741353
Ni 11.845291  4.528875  0.922899
Al 10.032180  2.746136  0.957744
Ni 13.641275  4.524427  2.732458
Al 13.626521  2.717356  0.933048
Ni 10.014005  8.091136  2.719661
Ni 11.871038  6.344919  2.718841
Ni 11.863606  8.150232  0.910595
Al 10.119103  6.356375  0.862992
Ni 13.659792  8.144897  2.724429
Al 13.650035  6.331534  0.912235
Ni 10.008511 11.729507  2.732441
Ni 11.849244  9.932800  2.722277
Ni 11.829075 11.753509  0.934019
Al 10.054486  9.926789  0.944032
Ni 13.633714 11.760712  2.733215
Al 13.648700  9.958799  0.919802
Ni  8.298405  0.894279  8.124626
Ni 11.799399 13.555967  6.322473
Ni 11.799863  0.925112  4.533146
Al 10.024877 13.539381  4.514238
Ni 13.605582  0.915570  6.340905
Al 13.615231 13.571535  4.540221
Ni 10.008823  4.593973  6.363762
Ni 11.796613  2.735031  6.333585
Ni 11.842918  4.539612  4.542897
Al 10.006343  2.784669  4.515213
Ni 13.633177  4.520741  6.356046
Al 13.620762  2.722435  4.542753
Ni 10.016484  8.146736  6.387157
Ni 11.860599  6.350125  6.375146
Ni 11.878119  8.148374  4.543718
Al 10.147785  6.372672  4.557059
Ni 13.659949  8.146310  6.360372
Al 13.650269  6.333838  4.546261
Ni 10.014100 11.678381  6.339783
Ni 11.844429  9.933958  6.352778
Ni 11.829459 11.736360  4.533914
Al 10.071079  9.891376  4.488771
Ni 13.631131 11.763216  6.343403
Al 13.650417  9.952906  4.540166
Ni 10.013693  0.915534  9.964881
Ni 11.820958 13.578853  9.970413
Ni 11.795352  0.915539  8.138643
Al 10.071311 13.540303  8.133121
Ni 13.611975  0.913786  9.965108
Al 13.608508 13.582091  8.148727
Ni 10.011040  4.523012  9.990569
Ni 11.810239  2.712055  9.973545
Ni 11.843657  4.517319  8.172369
Al 10.039163  2.738559  8.141761
Ni 13.637728  4.505276  9.977776
Al 13.611889  2.708057  8.154976
Ni 10.049599  8.137434 10.005351
Ni 11.869955  6.324991 10.006561
Ni 11.884795  8.145239  8.187112
Al 10.139022  6.346822  8.239834
Ni 13.662823  8.143660  9.986930
Al 13.647449  6.325616  8.176467
Ni 10.054427 11.754289  9.982164
Ni 11.881201  9.957375  9.999648
Ni 11.854296 11.761083  8.156280
Al 10.139275  9.935888  8.239734
Ni 13.638588 11.782321  9.976278
Al 13.649999  9.961213  8.167057
Ni 10.005778  0.920370 13.634566
Ni 11.815352 13.571221 13.611064
Ni 11.806512  0.917111 11.792155
Al 10.062544 13.568437 11.802503
Ni 13.620102  0.913203 13.593924
Al 13.616925 13.584022 11.785348
Ni 10.015299  4.540701 13.586632
Ni 11.818294  2.718745 13.600378
Ni 11.834291  4.510092 11.784480
Al 10.028478  2.722773 11.805435
Ni 13.640677  4.511889 13.580777
Al 13.622804  2.704710 11.780979
Ni 10.028323  8.151648 13.563065
Ni 11.862754  6.334202 13.559775
Ni 11.863617  8.145943 11.787243
Al 10.050230  6.331553 11.778139
Ni 13.657103  8.149342 13.577928
Al 13.657069  6.323001 11.782001
Ni 10.010647 11.740059 13.605007
Ni 11.842319  9.957363 13.586415
Ni 11.839555 11.771593 11.796330
Al 10.071816  9.949697 11.773573
Ni 13.637247 11.774135 13.592010
Al 13.654407  9.967507 11.788949
Ni  0.902370 13.485887  2.682326
Ni  0.949077  0.840057  0.870292
Ni  2.801996  0.858975  2.651406
Ni  4.568117 13.529201  2.675952
Al  6.556089 11.735907 13.545529
Ni  2.723420 13.514064  0.856182
Ni  6.298607  0.955572  2.736743
Ni  8.195424 13.541316  2.739585
Ni  6.375679  2.744048  0.936075
Ni  6.426379 13.526484  0.925784
Al  2.608495  9.939946 11.689119
Ni  2.712243  2.746627  0.803777
Ni  2.698539  4.572080  2.689934
Al  4.589903 11.853227 11.665196
Ni  6.318597  4.612274  2.706229
Ni  8.201881  2.794176  2.719272
Ni  8.215023  4.590186  0.938694
Ni  4.521363  4.573375  0.862056
Al  0.974828 11.716744  0.814614
Ni  0.972909  6.427684  2.747960
Ni  2.731490  8.168843  2.690577
Ni  6.368370  6.390055  0.910081
Ni  4.535538  8.186134  0.835304
Al  6.445160  8.162329 13.587931
Ni  6.315211  8.133312  2.725438
Ni  8.190797  4.696468  4.547629
Ni  8.221293  8.148654  0.923566
Al  4.583021  8.087175 11.639118
Ni  0.912783  9.917430  2.654353
Ni  0.912456  9.926060 13.532845
Ni  2.745192 11.713517  2.672178
Ni  6.367127  9.963147  0.897012
Al  0.921349  4.681906  0.947570
Ni  2.756524  9.950611  0.815118
Ni  6.348703 11.699005  2.704866
Ni  8.188886  9.886986  2.750734
Ni  8.224360 11.724887  0.951757
Ni  4.592979  9.984773 13.440632
Ni  0.910154 13.550930  6.321866
Ni  0.979191  0.887119  4.489875
Ni  2.734082  0.864343  6.340776
Ni  4.598161 13.534337  6.357024
Al  6.392583  4.625313 13.646788
Ni  2.710114 13.490341  4.515920
Al  2.858456  4.584190 13.436677
Ni  8.280464 13.504327  6.311341
Ni  8.198059  0.924250  4.486621
Ni  6.417264 13.541886  4.511271
Al  0.902266  2.581842 13.501329
Ni  0.934461  2.708823  6.310633
Ni  2.820389  4.498194  6.378975
Ni  4.631734  2.608954  6.246782
Ni  4.520794  4.499364  4.520332
Ni  2.741576  2.692734  4.504733
Ni  6.347385  4.512365  6.364159
Ni  9.991261  0.916906  6.301962
Al  4.666500 11.824280  8.290352
Ni  8.238808  2.767506  6.302511
Ni  1.026019  6.376344  6.358978
Ni  2.772807  9.982427  4.548432
Al  2.840757  6.290401  8.127625
Ni  2.880304  6.394164  4.627429
Ni  6.304561  8.157423  6.402797
Al  0.918844  6.288720  9.945583
Ni  8.167663  8.077308  4.584027
Ni  4.540506  8.207182  4.536314
Ni  0.972091  9.963065  6.358700
Al  6.489098  4.542289  9.959144
Al  4.592785  4.300637  8.120470
Ni  4.624046 10.043657  6.397676
Ni  4.566091 11.757958  4.506422
Al  0.802004  2.812518  9.974516
Ni  6.406113 11.760296  6.361446
Ni  8.204168 11.683740  4.537172
Al  6.587468  0.828160  9.917740
Ni  0.912643  0.915698  8.178925
Al  6.534099  2.673688 11.867553
Al  4.556610  0.897576  8.060893
Al  2.712483  0.928774  9.970533
Ni  2.733478 13.573653  8.175765
Al  0.807034 13.490492  9.936215
Ni  8.312667 13.536417  9.957955
Ni  6.473119 13.577915  8.140529
Al  6.387833  9.935186  4.531342
Al  8.155797  9.903574  6.443436
Al  4.494523  9.886926  2.680805
Ni  0.925929  4.526427  8.125617
Ni  2.766064  4.456535  9.956739
Al  2.785882 11.776126  6.393197
Al  0.966439 11.665274  4.472418
Ni  2.731258  2.667802  8.164520
Ni  4.670764  2.571032 10.012314
Ni  8.245281  2.721768  9.973658
Ni  8.226469  4.539070  8.153772
Ni  6.460899  2.648580  8.140677
Al  8.143003  6.378209  6.449987
Ni  0.992836  8.126191  8.115469
Ni  2.738096  8.112471  9.930661
Ni  4.590119  6.243877  9.904257
Ni  4.574321  8.162915  8.221439
Al  2.906679  8.272260  6.399090
Ni  6.403428  8.114778  9.962608
Ni  8.232864  6.342549  9.928276
Ni  8.218352  8.141826  8.195645
Ni  6.311623  6.290760  8.111942
Al  6.154573  6.352148  4.692313
Al  1.001523  8.174870  4.554336
Ni  0.906944  9.949898  9.899128
Ni  0.925792 11.768811  8.118036
Ni  2.741663 11.794957  9.943227
Ni  4.568231  9.973824 10.015091
Al  6.499124  2.846602  4.485190
Ni  2.790787 10.004384  8.192700
Ni  6.443274 11.804652  9.994745
Ni  8.252832  9.945557  9.954419
Ni  8.247399 11.732871  8.168143
Ni  6.405290  9.973904  8.221482
Ni  0.888306 13.559603 13.526295
Ni  0.896776  0.879316 11.706285
Ni  2.744091  0.872228 13.532807
Ni  4.616091 13.480926 13.548458
Ni  4.606609 13.693114  9.957224
Ni  2.713635 13.564685 11.710384
Ni  6.428894  0.892187 13.607418
Ni  8.268343 13.560463 13.620922
Ni  8.266732  0.896558 11.807387
Ni  6.482362 13.579475 11.781586
Al  1.062782  4.647100  4.584139
Ni  0.867447  6.307337 13.515138
Al  6.572258  0.829290  6.335403
Ni  2.731161  6.374355  0.817142
Ni  4.600725  2.717228 13.577429
Ni  4.674282  4.477618 11.729396
Ni  2.747633  2.698526 11.756824
Al  4.473496  0.771713  4.518229
Ni  8.185002  0.910866  0.979762
Ni  8.208092  4.541035 11.803534
Ni  8.225521  2.746491 13.661050
Al  4.508874 11.791165  0.844567
Ni  0.899376  8.088434 11.736560
Ni  0.872002  4.536211 11.810699
Ni  2.775042  8.135225 13.453409
Ni  4.604219  6.382408 13.517710
Al  8.092955  6.392220  2.708643
Ni  2.757395  6.316120 11.688756
Al  4.460384  6.372472  2.627938
Ni  8.228720  6.365797 13.596105
Ni  8.227525  8.146308 11.756488
Ni  6.435811  6.344379 11.756913
Al  0.979194  8.144553  0.814155
Ni  0.911218 11.762388 11.745264
Al  4.564819  0.806098  0.814948
Al  4.578786  0.817521 11.904478
Ni  2.755258 11.745758 13.468532
Al  4.463073  2.827989  2.626102
Al  1.050984  2.598976  2.630146
Ni  6.434446  9.945013 11.744197
Ni  8.247731  9.925212 13.584755
Ni  8.263185 11.746928 11.765080
%ENDBLOCK POSITIONS_ABS

FIX_ALL_CELL: TRUE
KPOINT_MP_GRID: 1 1 1
