#######################################################
#CASTEP cell file: /home/u2093113/CASTEP/castep.cell
#Created using the Atomic Simulation Environment (ASE)#
#######################################################

%BLOCK LATTICE_CART
14.464828  0.000000  0.000000
 0.000000 14.464828  0.000000
 0.000000  0.000000 14.464828
%ENDBLOCK LATTICE_CART

%BLOCK POSITIONS_ABS
Al  8.221303  0.893351  8.144028
Al 11.835134  0.891696  8.126208
Al  8.243593  4.530831  8.135032
Al 11.850880  4.525141  8.135470
Al  8.312503  8.152047  8.041486
Al 11.872765  8.138613  8.101288
Al  8.224310 11.738528  8.128033
Al 11.849705 11.754712  8.104234
Al  8.212897  0.874136 11.728071
Al 11.832886  0.911620 11.717009
Al  8.210542  4.552442 11.721284
Al 11.854093  4.519723 11.730805
Al  8.376797  8.173863 11.748398
Al 11.871258  8.126933 11.737011
Al  8.284292 11.713483 11.663386
Al 11.867665 11.756033 11.712047
Al  8.235885  0.864833  0.870314
Al 11.825459  0.917065  0.874601
Al  8.233042  4.540372  0.889369
Al 11.828246  4.507421  0.871151
Al  8.300760  8.155989  0.955865
Al 11.896406  8.125782  0.892961
Al  8.334899 11.734248  0.983328
Al 11.839469 11.758411  0.891688
Al  8.236886  0.900098  4.518741
Al 11.808396  0.908114  4.514685
Al  8.251694  4.518062  4.506454
Al 11.835412  4.515614  4.503620
Al  8.239123  8.145318  4.505711
Al 11.845574  8.121525  4.517932
Al  8.223887 11.746542  4.495557
Al 11.868663 11.756345  4.523951
Al  4.769276 13.560194  6.297168
Al  0.825894 11.771104  4.495642
Al  2.798627 13.657663  4.389630
Al  4.667514  9.955277  6.378077
Al  2.781155  9.844143  4.416732
Al  4.717444  4.606261  8.012801
Al  0.969077  6.319864  6.305709
Al  2.848962 13.603784  1.010882
Al  0.860102  8.105783  1.017617
Al  4.690398  6.299818  2.796114
Al  2.790939  6.089049  0.891927
Al  4.782330  2.699657  2.697554
Al  4.640247  5.518941  5.504897
Al  2.732874  2.717467  0.795842
Al  0.803061  2.706559  2.716476
Al  4.551621 11.734543 11.728538
Al  6.357311 11.737492 13.657702
Al  2.651625 11.670254  9.886042
Al  0.912091 13.567667 13.480522
Al  6.258239  8.171491 13.560963
Al  0.896174 10.084196 13.493095
Al  2.869941  8.133584 13.462800
Al  4.743314  4.672393 11.715094
Al  4.819842  2.623545 13.562208
Al  2.685955  2.568352 11.721789
Al  2.703720 13.626008  8.090246
Al  6.281915  8.156514  9.899377
Al  2.768411  8.139286  9.897040
Al  2.737070  2.573775  8.035877
Al  2.793698  2.686865  4.693046
Al  2.632017  4.651260  9.890148
Ni  8.219222  2.701638  9.930346
Ni 10.030632  0.893869  9.932378
Ni 10.041131  2.712129  8.142309
Ni 11.848562  2.714423  9.930627
Ni 13.647842  0.905542  9.910393
Ni 13.627508  2.719950  8.123540
Ni  8.237941  6.414299  9.913883
Ni 10.035243  4.531387  9.936028
Ni 10.066243  6.330245  8.122449
Ni 11.864092  6.322861  9.939956
Ni 13.671973  4.518129  9.933894
Ni 13.652219  6.334634  8.124290
Ni  8.231319  9.879517  9.926545
Ni 10.086547  8.143221  9.907249
Ni 10.041989  9.950079  8.105543
Ni 11.858914  9.953903  9.897093
Ni 13.642798  8.139766  9.919092
Ni 13.665322  9.938673  8.093089
Ni  8.211890 13.548585  9.941965
Ni 10.055496 11.741694  9.905048
Ni 10.017211 13.550984  8.119566
Ni 11.841626 13.557512  9.901085
Ni 13.675503 11.757017  9.888343
Ni 13.657157 13.552855  8.108002
Ni  6.513523  2.695248  0.890573
Ni 10.017104  0.901352 13.522817
Ni 10.018075  2.717438 11.723833
Ni 11.823379  2.718242 13.512571
Ni 13.643337  0.924474 13.522288
Ni 13.659024  2.705922 11.716192
Ni  8.234804  6.420157 13.553017
Ni 10.011275  4.525243 13.531499
Ni 10.049915  6.331039 11.737389
Ni 11.852804  6.309954 13.540057
Ni 13.659991  4.515118 13.534157
Ni 13.676748  6.328327 11.746893
Ni  8.231553  9.954538 13.564548
Ni 10.089083  8.150767 13.567285
Ni 10.085145  9.952573 11.733779
Ni 11.885515  9.933085 13.544008
Ni 13.699612  8.121772 13.545753
Ni 13.646765  9.950739 11.694613
Ni  8.231558 13.457813 13.542785
Ni 10.078292 11.734855 13.538830
Ni 10.041849 13.544669 11.729494
Ni 11.842350 13.591304 13.530281
Ni 13.603352 11.790712 13.553601
Ni 13.615552 13.564739 11.683550
Ni  8.232344  2.700670  2.716453
Ni 10.029315  0.902752  2.691997
Ni 10.008836  2.708595  0.871832
Ni 11.839208  2.709117  2.686960
Ni 13.617419  0.877261  2.695488
Ni 13.612206  2.703003  0.839046
Ni  8.227326  6.340959  2.692646
Ni 10.029475  4.516030  2.689239
Ni 10.045569  6.329693  0.885755
Ni 11.830498  6.317417  2.689550
Ni 13.620335  4.535710  2.689394
Ni 13.651892  6.282652  0.884434
Ni  8.240425  9.943370  2.707839
Ni 10.065928  8.134193  2.715099
Ni 10.076657  9.937158  0.898374
Ni 11.855124  9.942074  2.710555
Ni 13.627364  8.110250  2.747467
Ni 13.661347  9.968182  0.908583
Ni  8.246695 13.548632  2.691570
Ni 10.073397 11.749419  2.730517
Ni 10.052317 13.560478  0.877199
Ni 11.823934 13.565368  2.700691
Ni 13.628034 11.777130  2.673487
Ni 13.627678 13.578436  0.898066
Ni  8.255416  2.703812  6.344587
Ni 10.024990  0.893974  6.332474
Ni 10.038695  2.710521  4.511748
Ni 11.818099  2.699960  6.339827
Ni 13.635283  0.907205  6.320006
Ni 13.595342  2.707893  4.547201
Ni  8.254105  6.325398  6.325294
Ni 10.046950  4.520018  6.324326
Ni 10.038662  6.321366  4.503454
Ni 11.857523  6.319961  6.308443
Ni 13.628715  4.503479  6.311147
Ni 13.643198  6.300941  4.487004
Ni  8.219765  9.945150  6.294298
Ni 10.064420  8.135747  6.292344
Ni 10.048282  9.946587  4.509487
Ni 11.841006  9.948973  6.311517
Ni 13.663125  8.148239  6.285979
Ni 13.635953  9.917446  4.502038
Ni  8.207215 13.556857  6.324037
Ni 10.024398 11.750222  6.309177
Ni 10.027352 13.558371  4.516979
Ni 11.833812 13.562751  6.324721
Ni 13.638815 11.745935  6.329350
Ni 13.603191 13.606114  4.510678
Ni  0.988909  2.709312  9.901330
Ni  2.798827  0.882749  9.917148
Ni  0.928600  0.905590  8.100783
Ni  4.502639  2.827672  9.919610
Ni  6.362272  0.895203  9.941140
Ni  4.594523  6.297443  9.881506
Ni  4.633422  0.870732  8.138628
Ni  0.940691  4.499570  8.108870
Ni  0.929079  6.370516  9.910607
Ni  4.549797  8.146947 11.701579
Ni  6.445478  4.565408  9.896828
Ni  6.436536  6.388070  8.080942
Ni  2.787542  6.339977  8.080378
Ni  0.940245  9.909856  9.913425
Ni  4.560851  8.093587  8.049215
Ni  2.769305  9.938951  8.059965
Ni  4.568311  9.982615  9.887641
Ni  6.465499  6.452473 11.726843
Ni  6.422977  9.926134  8.137345
Ni  0.971279 13.569636  9.897953
Ni  4.570909 11.792837  8.120862
Ni  0.994791 11.746034  8.056602
Ni  4.575084 13.518175  9.918222
Ni  6.401472 11.714587  9.906399
Ni  6.413971 13.539497  8.173341
Ni  2.786660 11.790007  6.230936
Ni  0.948207  2.687068 13.514893
Ni  2.811548  0.872629 13.554178
Ni  0.940605  0.870038 11.697738
Ni  6.445544  0.806790 13.531160
Ni  6.387324  2.713747 11.676963
Ni  4.596656  0.875426 11.716049
Ni  1.044910  6.338509 13.571927
Ni  2.868295  4.390294 13.436921
Ni  2.770849  6.311165 11.727983
Ni  0.983022  4.509243 11.743548
Ni  4.592952  6.311520 13.574875
Ni  8.201913  2.709697 13.502956
Ni  6.435564  4.575159 13.559979
Ni  0.935139 11.784260 11.696538
Ni  0.968400  8.137615 11.750158
Ni  4.556251  9.997618 13.577221
Ni  6.392720  9.945841 11.744767
Ni  2.754520  9.963929 11.734022
Ni  2.751117 11.819381 13.598200
Ni  2.786244 13.552402 11.693663
Ni  4.610192 13.558947 13.538951
Ni  6.392800 13.476278 11.738400
Ni  0.958036  0.899380  0.877921
Ni  6.446572  0.868516  2.707413
Ni  4.648527  0.919591  0.910893
Ni  0.992924  6.242950  2.700529
Ni  0.949549  4.463880  0.864159
Ni  2.823419  4.341977  2.780899
Ni  6.427523  4.527938  2.721155
Ni  6.418344  6.368773  0.885711
Ni  4.658653  4.482586  0.902208
Ni  0.952422  9.959387  2.713977
Ni  2.770654  8.040898  2.658190
Ni  2.692293  9.904891  0.851934
Ni  4.584254  9.920802  2.671150
Ni  6.404146  8.154827  2.711280
Ni  6.397232  9.921915  0.916729
Ni  4.522346  8.114842  0.940295
Ni  0.949883 13.617776  2.715112
Ni  2.749819 11.736847  2.763744
Ni  0.976591 11.816820  0.946267
Ni  4.642395 13.574525  2.716941
Ni  6.391313 11.736038  2.690058
Ni  6.406203 13.526066  0.909191
Ni  4.548306 11.734308  0.949919
Ni  0.921513  2.706754  6.322521
Ni  2.822272  0.808161  6.286552
Ni  2.795227  1.114066  2.707596
Ni  0.948836  0.929368  4.518795
Ni  4.656215  2.684889  6.364278
Ni  6.436006  0.933291  6.328863
Ni  6.449265  2.719593  4.552408
Ni  4.667310  0.925471  4.509711
Ni  0.966309  8.156937  8.092804
Ni  2.781986  4.508789  6.352482
Ni  2.790467  6.288765  4.479709
Ni  0.966922  4.483234  4.509371
Ni  6.424935  2.696147  8.158676
Ni  6.467776  6.333074  4.538452
Ni  6.473718  4.510733  6.312189
Ni  0.994327  9.938242  6.260984
Ni  2.782874  8.140852  6.277360
Ni  0.973925  8.094603  4.461529
Ni  6.417368  8.120886  6.294306
Ni  6.394486  9.937931  4.473886
Ni  4.621272  8.137379  4.514368
Ni  0.945122 13.569702  6.271426
Ni  4.617398 11.732991  4.480128
Ni  6.429824 11.734542  6.304892
Ni  6.448718 13.550203  4.468954
%ENDBLOCK POSITIONS_ABS

