#######################################################
#CASTEP cell file: /home/u2093113/CASTEP/castep.cell
#Created using the Atomic Simulation Environment (ASE)#
#######################################################

%BLOCK LATTICE_CART
14.464828  0.000000  0.000000
 0.000000 14.464828  0.000000
 0.000000  0.000000 14.464828
%ENDBLOCK LATTICE_CART

%BLOCK POSITIONS_ABS
Al  8.224487  0.887297  8.140003
Al 11.835063  0.893345  8.122700
Al  8.214395  4.527430  8.114659
Al 11.850016  4.522577  8.134170
Al  8.301786  8.144515  8.035415
Al 11.870299  8.134094  8.097972
Al  8.224509 11.736942  8.124665
Al 11.849580 11.750870  8.100673
Al  8.215719  0.868611 11.727714
Al 11.833947  0.909227 11.712573
Al  8.216960  4.548772 11.727273
Al 11.852610  4.516230 11.721731
Al  8.375789  8.171183 11.747757
Al 11.870945  8.124776 11.731161
Al  8.285555 11.710292 11.662197
Al 11.867530 11.752816 11.708213
Al  8.239818  0.861438  0.868037
Al 11.827616  0.913843  0.872839
Al  8.244506  4.535242  0.877431
Al 11.830086  4.503790  0.870739
Al  8.303336  8.153084  0.953749
Al 11.896766  8.124057  0.891093
Al  8.335925 11.732009  0.983004
Al 11.840496 11.756297  0.890219
Al  8.237094  0.898528  4.514889
Al 11.809454  0.907434  4.514503
Al  8.249690  4.509155  4.511819
Al 11.835945  4.513948  4.502929
Al  8.235534  8.141245  4.498882
Al 11.845324  8.117097  4.518749
Al  8.224044 11.746333  4.489484
Al 11.869793 11.755264  4.522966
Al  4.768602 13.560547  6.290053
Al  0.824825 11.771119  4.492684
Al  2.799937 13.658894  4.384834
Al  4.665741  9.959896  6.367738
Al  2.777233  9.845530  4.406953
Al  4.736912  4.510886  8.100731
Al  0.973009  6.312641  6.311795
Al  2.847497 13.608393  1.013031
Al  0.858392  8.102893  1.015829
Al  4.677919  6.213212  2.851358
Al  2.795120  6.088153  0.895476
Al  4.784305  2.732849  2.709154
Al  4.607465  6.353706  6.164282
Al  2.731585  2.712564  0.793331
Al  0.801885  2.704751  2.717011
Al  4.550177 11.735419 11.734181
Al  6.358485 11.734532 13.659136
Al  2.651752 11.672684  9.885569
Al  0.910994 13.564879 13.480773
Al  6.256345  8.168217 13.564129
Al  0.897109 10.082361 13.492722
Al  2.872836  8.130903 13.466051
Al  4.743034  4.666914 11.720427
Al  4.819610  2.619198 13.563513
Al  2.682378  2.561637 11.726912
Al  2.704285 13.628447  8.083013
Al  6.283151  8.155378  9.899706
Al  2.766661  8.140821  9.900647
Al  2.735853  2.562901  8.038576
Al  2.826928  2.732279  4.687581
Al  2.626334  4.643346  9.901413
Ni  8.219700  2.696179  9.928837
Ni 10.031314  0.890863  9.928308
Ni 10.034069  2.712857  8.137376
Ni 11.848142  2.713325  9.923840
Ni 13.647332  0.903496  9.906331
Ni 13.633689  2.720224  8.118531
Ni  8.231888  6.410126  9.909008
Ni 10.025663  4.528534  9.927458
Ni 10.057298  6.324377  8.117874
Ni 11.861143  6.319425  9.935157
Ni 13.676572  4.516026  9.929123
Ni 13.654194  6.330571  8.123295
Ni  8.230351  9.876041  9.923859
Ni 10.082480  8.138741  9.902547
Ni 10.038520  9.945081  8.101670
Ni 11.858394  9.949723  9.892740
Ni 13.644592  8.136767  9.915331
Ni 13.666828  9.935290  8.089987
Ni  8.212266 13.544531  9.940026
Ni 10.055295 11.738335  9.901057
Ni 10.018633 13.548371  8.115697
Ni 11.841553 13.554826  9.896702
Ni 13.674822 11.754918  9.884878
Ni 13.656555 13.552810  8.104394
Ni  6.516242  2.689191  0.886830
Ni 10.020208  0.897379 13.520095
Ni 10.019170  2.713743 11.720197
Ni 11.824819  2.714887 13.508668
Ni 13.643052  0.921256 13.520493
Ni 13.658265  2.702732 11.712784
Ni  8.234881  6.418283 13.555635
Ni 10.017705  4.522171 13.528037
Ni 10.048484  6.328962 11.734268
Ni 11.854007  6.307814 13.533738
Ni 13.655716  4.512245 13.529245
Ni 13.676948  6.326565 11.742560
Ni  8.232328  9.951953 13.564690
Ni 10.090723  8.148623 13.564261
Ni 10.085039  9.949294 11.730673
Ni 11.885670  9.930610 13.540895
Ni 13.698503  8.120403 13.542630
Ni 13.646595  9.948752 11.692231
Ni  8.233427 13.454244 13.542243
Ni 10.079891 11.732118 13.536972
Ni 10.043145 13.541252 11.726639
Ni 11.843301 13.588080 13.527681
Ni 13.602793 11.788001 13.551690
Ni 13.614779 13.561721 11.680563
Ni  8.242461  2.691296  2.711639
Ni 10.034414  0.898328  2.690631
Ni 10.014776  2.703883  0.868915
Ni 11.840738  2.706307  2.687150
Ni 13.617781  0.876760  2.695742
Ni 13.611222  2.700138  0.837833
Ni  8.240394  6.338976  2.682769
Ni 10.030689  4.511841  2.688026
Ni 10.052934  6.327786  0.880994
Ni 11.830149  6.314121  2.690097
Ni 13.620318  4.532079  2.689457
Ni 13.647250  6.280254  0.880358
Ni  8.238585  9.937520  2.703903
Ni 10.069174  8.132959  2.713586
Ni 10.078212  9.935138  0.897026
Ni 11.856114  9.940885  2.709741
Ni 13.624613  8.107773  2.745791
Ni 13.660324  9.966213  0.906516
Ni  8.246797 13.549884  2.688653
Ni 10.073278 11.747280  2.728872
Ni 10.054835 13.557395  0.875803
Ni 11.825671 13.562342  2.700403
Ni 13.628405 11.775883  2.672513
Ni 13.627584 13.576543  0.897623
Ni  8.244830  2.711424  6.340358
Ni 10.021638  0.894822  6.329612
Ni 10.039946  2.708344  4.511350
Ni 11.818279  2.698725  6.339260
Ni 13.640705  0.910050  6.317145
Ni 13.597135  2.707682  4.548505
Ni  8.239833  6.312543  6.322755
Ni 10.046224  4.517694  6.323369
Ni 10.034804  6.317119  4.503691
Ni 11.856347  6.317674  6.308262
Ni 13.629855  4.501500  6.311381
Ni 13.644856  6.296612  4.488306
Ni  8.221244  9.947587  6.288817
Ni 10.056610  8.131119  6.289615
Ni 10.047984  9.943875  4.506352
Ni 11.839727  9.944050  6.309200
Ni 13.666045  8.144275  6.286200
Ni 13.636107  9.913857  4.500892
Ni  8.208448 13.552913  6.319564
Ni 10.027000 11.749121  6.305777
Ni 10.028264 13.557151  4.514551
Ni 11.834883 13.565723  6.322617
Ni 13.637104 11.746116  6.327261
Ni 13.605663 13.608315  4.509354
Ni  0.988668  2.704249  9.901626
Ni  2.797508  0.875698  9.919145
Ni  0.929315  0.904198  8.096505
Ni  4.504542  2.804072  9.942911
Ni  6.365417  0.887030  9.943170
Ni  4.595831  6.297089  9.896540
Ni  4.631790  0.864831  8.134718
Ni  0.954770  4.497966  8.104456
Ni  0.933869  6.369031  9.907226
Ni  4.551061  8.147773 11.702995
Ni  6.455480  4.556856  9.916418
Ni  6.408582  6.372437  8.082212
Ni  2.811649  6.332540  8.085775
Ni  0.940210  9.909588  9.911785
Ni  4.557170  8.129575  8.069920
Ni  2.765771  9.945240  8.059524
Ni  4.568612  9.988526  9.892978
Ni  6.467554  6.449746 11.729891
Ni  6.422060  9.926496  8.133643
Ni  0.970641 13.567699  9.895114
Ni  4.570854 11.792556  8.117184
Ni  0.993875 11.748269  8.053549
Ni  4.575886 13.515864  9.916626
Ni  6.401669 11.712206  9.905230
Ni  6.414383 13.536137  8.169350
Ni  2.785873 11.790124  6.226583
Ni  0.945664  2.683061 13.513743
Ni  2.810398  0.868030 13.555641
Ni  0.938563  0.864694 11.697010
Ni  6.447337  0.802948 13.530838
Ni  6.393230  2.705334 11.683716
Ni  4.596855  0.867036 11.719941
Ni  1.043817  6.337834 13.571109
Ni  2.869639  4.388291 13.439839
Ni  2.770792  6.309993 11.730688
Ni  0.981766  4.506182 11.745985
Ni  4.594297  6.307614 13.577455
Ni  8.206592  2.705008 13.502899
Ni  6.435902  4.571244 13.561039
Ni  0.934561 11.782502 11.695528
Ni  0.968725  8.136692 11.750061
Ni  4.556224  9.993465 13.582388
Ni  6.392778  9.945183 11.746628
Ni  2.754674  9.963532 11.736196
Ni  2.750848 11.818976 13.601740
Ni  2.785164 13.548988 11.694970
Ni  4.610936 13.558707 13.543126
Ni  6.393797 13.470607 11.739387
Ni  0.957170  0.897583  0.878351
Ni  6.443320  0.872647  2.700924
Ni  4.647977  0.925715  0.916561
Ni  0.983464  6.239157  2.693236
Ni  0.942524  4.463631  0.851779
Ni  2.785135  4.335415  2.750358
Ni  6.479221  4.516783  2.697394
Ni  6.414851  6.362435  0.890845
Ni  4.663922  4.482146  0.912531
Ni  0.950107  9.957143  2.711055
Ni  2.769742  8.030680  2.657074
Ni  2.693395  9.899274  0.853487
Ni  4.583330  9.925223  2.658409
Ni  6.395473  8.138310  2.702863
Ni  6.396461  9.916388  0.916666
Ni  4.523508  8.093492  0.954648
Ni  0.949872 13.619944  2.715586
Ni  2.748148 11.738159  2.759725
Ni  0.975528 11.814575  0.945722
Ni  4.642658 13.577506  2.714862
Ni  6.390913 11.736614  2.684605
Ni  6.406896 13.526506  0.907787
Ni  4.547325 11.738925  0.946815
Ni  0.937162  2.714580  6.316741
Ni  2.823078  0.815658  6.272905
Ni  2.800498  1.123462  2.712848
Ni  0.957498  0.938334  4.517734
Ni  4.662201  2.671817  6.360485
Ni  6.440516  0.925253  6.323564
Ni  6.459237  2.710204  4.545733
Ni  4.671084  0.940377  4.504023
Ni  0.972244  8.152617  8.091310
Ni  2.835163  4.519344  6.359609
Ni  2.764861  6.272040  4.470524
Ni  0.973313  4.481103  4.515568
Ni  6.429980  2.679685  8.158727
Ni  6.489093  6.321319  4.511572
Ni  6.401449  4.506977  6.276872
Ni  0.992454  9.939963  6.258969
Ni  2.776763  8.149471  6.273042
Ni  0.971474  8.091835  4.458695
Ni  6.420897  8.134255  6.283634
Ni  6.394225  9.937731  4.461800
Ni  4.621029  8.149461  4.469718
Ni  0.945975 13.571064  6.266215
Ni  4.616378 11.732475  4.474379
Ni  6.430078 11.733577  6.297834
Ni  6.447148 13.551728  4.463041
%ENDBLOCK POSITIONS_ABS

