#######################################################
#CASTEP cell file: /home/u2093113/CASTEP/castep.cell
#Created using the Atomic Simulation Environment (ASE)#
#######################################################

%BLOCK LATTICE_CART
14.464828  0.000000  0.000000
 0.000000 14.464828  0.000000
 0.000000  0.000000 14.464828
%ENDBLOCK LATTICE_CART

%BLOCK POSITIONS_ABS
Al  8.218119  0.899405  8.148052
Al 11.835205  0.890046  8.129717
Al  8.272790  4.534233  8.155406
Al 11.851745  4.527705  8.136770
Al  8.323219  8.159579  8.047557
Al 11.875231  8.143132  8.104604
Al  8.224111 11.740115  8.131401
Al 11.849831 11.758554  8.107795
Al  8.210075  0.879662 11.728429
Al 11.831825  0.914012 11.721445
Al  8.204125  4.556112 11.715296
Al 11.855576  4.523216 11.739878
Al  8.377804  8.176543 11.749040
Al 11.871571  8.129090 11.742861
Al  8.283030 11.716675 11.664575
Al 11.867800 11.759250 11.715881
Al  8.231951  0.868228  0.872592
Al 11.823302  0.920286  0.876364
Al  8.221577  4.545502  0.901307
Al 11.826407  4.511052  0.871562
Al  8.298184  8.158893  0.957982
Al 11.896046  8.127507  0.894829
Al  8.333873 11.736487  0.983652
Al 11.838442 11.760526  0.893156
Al  8.236678  0.901668  4.522593
Al 11.807339  0.908793  4.514868
Al  8.253698  4.526970  4.501090
Al 11.834879  4.517280  4.504310
Al  8.242711  8.149390  4.512539
Al 11.845825  8.125953  4.517114
Al  8.223730 11.746751  4.501629
Al 11.867534 11.757425  4.524937
Al  4.769949 13.559841  6.304282
Al  0.826963 11.771090  4.498600
Al  2.797317 13.656433  4.394427
Al  4.669288  9.950659  6.388416
Al  2.785077  9.842756  4.426511
Al  4.697975  4.701636  7.924872
Al  0.965144  6.327087  6.299624
Al  2.850428 13.599176  1.008734
Al  0.861813  8.108673  1.019405
Al  4.702877  6.386425  2.740869
Al  2.786759  6.089946  0.888379
Al  4.780355  2.666464  2.685954
Al  4.673028  4.684177  4.845511
Al  2.734162  2.722369  0.798354
Al  0.804238  2.708367  2.715940
Al  4.553066 11.733668 11.722895
Al  6.356136 11.740452 13.656269
Al  2.651498 11.667825  9.886515
Al  0.913188 13.570454 13.480270
Al  6.260134  8.174766 13.557797
Al  0.895239 10.086031 13.493468
Al  2.867046  8.136265 13.459548
Al  4.743593  4.677873 11.709762
Al  4.820075  2.627893 13.560903
Al  2.689532  2.575067 11.716665
Al  2.703156 13.623568  8.097480
Al  6.280679  8.157651  9.899048
Al  2.770162  8.137752  9.893433
Al  2.738287  2.584648  8.033178
Al  2.760468  2.641451  4.698511
Al  2.637700  4.659174  9.878883
Ni  8.218743  2.707096  9.931855
Ni 10.029950  0.896875  9.936449
Ni 10.048193  2.711400  8.147243
Ni 11.848983  2.715521  9.937414
Ni 13.648351  0.907588  9.914456
Ni 13.621326  2.719676  8.128548
Ni  8.243994  6.418473  9.918759
Ni 10.044823  4.534241  9.944598
Ni 10.075189  6.336113  8.127024
Ni 11.867042  6.326297  9.944756
Ni 13.667375  4.520232  9.938665
Ni 13.650245  6.338697  8.125284
Ni  8.232286  9.882993  9.929231
Ni 10.090613  8.147701  9.911950
Ni 10.045458  9.955077  8.109416
Ni 11.859434  9.958084  9.901446
Ni 13.641004  8.142765  9.922853
Ni 13.663816  9.942056  8.096192
Ni  8.211514 13.552638  9.943903
Ni 10.055696 11.745053  9.909038
Ni 10.015789 13.553597  8.123434
Ni 11.841699 13.560198  9.905468
Ni 13.676184 11.759116  9.891808
Ni 13.657759 13.552900  8.111611
Ni  6.510804  2.701304  0.894316
Ni 10.014000  0.905325 13.525540
Ni 10.016980  2.721133 11.727470
Ni 11.821939  2.721598 13.516475
Ni 13.643622  0.927693 13.524082
Ni 13.659784  2.709112 11.719600
Ni  8.234726  6.422032 13.550398
Ni 10.004844  4.528314 13.534960
Ni 10.051345  6.333115 11.740511
Ni 11.851601  6.312093 13.546375
Ni 13.664265  4.517991 13.539069
Ni 13.676547  6.330089 11.751225
Ni  8.230778  9.957124 13.564405
Ni 10.087442  8.152911 13.570310
Ni 10.085251  9.955852 11.736885
Ni 11.885360  9.935560 13.547122
Ni 13.700720  8.123141 13.548876
Ni 13.646936  9.952727 11.696995
Ni  8.229688 13.461381 13.543327
Ni 10.076694 11.737593 13.540687
Ni 10.040553 13.548087 11.732350
Ni 11.841399 13.594528 13.532882
Ni 13.603911 11.793422 13.555512
Ni 13.616325 13.567757 11.686536
Ni  8.222226  2.710044  2.721267
Ni 10.024216  0.907176  2.693363
Ni 10.002897  2.713306  0.874749
Ni 11.837678  2.711927  2.686771
Ni 13.617058  0.877763  2.695233
Ni 13.613190  2.705869  0.840258
Ni  8.214257  6.342941  2.702522
Ni 10.028261  4.520218  2.690452
Ni 10.038203  6.331601  0.890516
Ni 11.830846  6.320714  2.689002
Ni 13.620353  4.539342  2.689331
Ni 13.656534  6.285049  0.888511
Ni  8.242265  9.949220  2.711775
Ni 10.062682  8.135426  2.716611
Ni 10.075103  9.939178  0.899723
Ni 11.854133  9.943262  2.711369
Ni 13.630114  8.112727  2.749144
Ni 13.662371  9.970151  0.910651
Ni  8.246594 13.547380  2.694487
Ni 10.073516 11.751558  2.732162
Ni 10.049800 13.563561  0.878595
Ni 11.822196 13.568395  2.700978
Ni 13.627664 11.778377  2.674461
Ni 13.627772 13.580330  0.898509
Ni  8.266003  2.696201  6.348816
Ni 10.028342  0.893127  6.335337
Ni 10.037443  2.712699  4.512147
Ni 11.817919  2.701195  6.340394
Ni 13.629862  0.904360  6.322866
Ni 13.593550  2.708105  4.545897
Ni  8.268377  6.338253  6.327834
Ni 10.047675  4.522343  6.325283
Ni 10.042519  6.325612  4.503218
Ni 11.858698  6.322248  6.308623
Ni 13.627575  4.505458  6.310912
Ni 13.641540  6.305269  4.485701
Ni  8.218287  9.942713  6.299779
Ni 10.072230  8.140375  6.295073
Ni 10.048580  9.949299  4.512622
Ni 11.842284  9.953897  6.313835
Ni 13.660205  8.152203  6.285758
Ni 13.635798  9.921034  4.503183
Ni  8.205982 13.560800  6.328510
Ni 10.021795 11.751323  6.312577
Ni 10.026439 13.559590  4.519407
Ni 11.832740 13.559779  6.326825
Ni 13.640525 11.745754  6.331440
Ni 13.600718 13.603912  4.512002
Ni  0.989150  2.714374  9.901034
Ni  2.800147  0.889799  9.915151
Ni  0.927886  0.906982  8.105061
Ni  4.500736  2.851271  9.896309
Ni  6.359127  0.903375  9.939110
Ni  4.593215  6.297798  9.866471
Ni  4.635054  0.876633  8.142537
Ni  0.926611  4.501173  8.113283
Ni  0.924289  6.372001  9.913988
Ni  4.548533  8.146120 11.700164
Ni  6.435476  4.573960  9.877239
Ni  6.464489  6.403703  8.079672
Ni  2.763436  6.347414  8.074981
Ni  0.940281  9.910123  9.915065
Ni  4.564531  8.057599  8.028511
Ni  2.772838  9.932661  8.060407
Ni  4.568009  9.976705  9.882304
Ni  6.463445  6.455200 11.723795
Ni  6.423895  9.925772  8.141047
Ni  0.971917 13.571573  9.900792
Ni  4.570964 11.793118  8.124540
Ni  0.995707 11.743798  8.059654
Ni  4.574281 13.520485  9.919817
Ni  6.401275 11.716969  9.907568
Ni  6.413559 13.542856  8.177331
Ni  2.787447 11.789889  6.235288
Ni  0.950750  2.691075 13.516044
Ni  2.812699  0.877228 13.552716
Ni  0.942648  0.875382 11.698466
Ni  6.443751  0.810632 13.531481
Ni  6.381417  2.722160 11.670209
Ni  4.596457  0.883815 11.712157
Ni  1.046002  6.339183 13.572745
Ni  2.866951  4.392297 13.434002
Ni  2.770906  6.312336 11.725278
Ni  0.984278  4.512303 11.741111
Ni  4.591606  6.315426 13.572295
Ni  8.197233  2.714385 13.503013
Ni  6.435225  4.579075 13.558919
Ni  0.935716 11.786017 11.697548
Ni  0.968075  8.138538 11.750255
Ni  4.556278 10.001772 13.572055
Ni  6.392661  9.946499 11.742906
Ni  2.754365  9.964326 11.731848
Ni  2.751386 11.819785 13.594660
Ni  2.787324 13.555816 11.692356
Ni  4.609449 13.559188 13.534777
Ni  6.391804 13.481949 11.737414
Ni  0.958901  0.901176  0.877491
Ni  6.449824  0.864384  2.713903
Ni  4.649077  0.913466  0.905224
Ni  1.002383  6.246743  2.707821
Ni  0.956574  4.464129  0.876538
Ni  2.861703  4.348539  2.811441
Ni  6.375825  4.539093  2.744917
Ni  6.421836  6.375111  0.880578
Ni  4.653383  4.483027  0.891886
Ni  0.954738  9.961631  2.716900
Ni  2.771567  8.051115  2.659307
Ni  2.691191  9.910507  0.850382
Ni  4.585178  9.916381  2.683891
Ni  6.412820  8.171343  2.719697
Ni  6.398003  9.927441  0.916792
Ni  4.521185  8.136192  0.925942
Ni  0.949894 13.615608  2.714639
Ni  2.751490 11.735536  2.767763
Ni  0.977655 11.819064  0.946812
Ni  4.642131 13.571543  2.719020
Ni  6.391712 11.735462  2.695511
Ni  6.405510 13.525625  0.910594
Ni  4.549286 11.729690  0.953024
Ni  0.905863  2.698929  6.328302
Ni  2.821466  0.800664  6.300198
Ni  2.789955  1.104671  2.702344
Ni  0.940175  0.920401  4.519855
Ni  4.650230  2.697960  6.368072
Ni  6.431496  0.941328  6.334162
Ni  6.439292  2.728982  4.559082
Ni  4.663536  0.910564  4.515400
Ni  0.960373  8.161257  8.094298
Ni  2.728809  4.498234  6.345356
Ni  2.816072  6.305490  4.488894
Ni  0.960532  4.485365  4.503175
Ni  6.419889  2.712609  8.158624
Ni  6.446460  6.344830  4.565332
Ni  6.545986  4.514489  6.347506
Ni  0.996201  9.936521  6.263000
Ni  2.788985  8.132232  6.281678
Ni  0.976375  8.097371  4.464364
Ni  6.413838  8.107518  6.304978
Ni  6.394746  9.938131  4.485973
Ni  4.621515  8.125298  4.559018
Ni  0.944270 13.568340  6.276637
Ni  4.618417 11.733506  4.485878
Ni  6.429570 11.735508  6.311951
Ni  6.450288 13.548678  4.474866
%ENDBLOCK POSITIONS_ABS

