%block lattice_abc 
  14.46482773 14.46482773 14.46482773 #lattice params 
 90.0  90.0  90.0 
     %endblock lattice_abc 
     fix_all_cell : true 
     %BLOCK POSITIONS_ABS 
Al  8.224487  0.887297  8.140003
 Al 11.835063  0.893345  8.122700
 Al  8.214395  4.527430  8.114659
 Al 11.850016  4.522577  8.134170
 Al  8.301786  8.144515  8.035415
 Al 11.870299  8.134094  8.097972
 Al  8.224509 11.736942  8.124665
 Al 11.849580 11.750870  8.100673
 Al  8.215719  0.868611 11.727714
 Al 11.833947  0.909227 11.712573
 Al  8.216960  4.548772 11.727273
 Al 11.852610  4.516230 11.721731
 Al  8.375789  8.171183 11.747757
 Al 11.870945  8.124776 11.731161
 Al  8.285555 11.710292 11.662197
 Al 11.867530 11.752816 11.708213
 Al  8.239818  0.861438  0.868037
 Al 11.827616  0.913843  0.872839
 Al  8.244506  4.535242  0.877431
 Al 11.830086  4.503790  0.870739
 Al  8.303336  8.153084  0.953749
 Al 11.896766  8.124057  0.891093
 Al  8.335925 11.732009  0.983004
 Al 11.840496 11.756297  0.890219
 Al  8.237094  0.898528  4.514889
 Al 11.809454  0.907434  4.514503
 Al  8.249690  4.509155  4.511819
 Al 11.835945  4.513948  4.502929
 Al  8.235534  8.141245  4.498882
 Al 11.845324  8.117097  4.518749
 Al  8.224044 11.746333  4.489484
 Al 11.869793 11.755264  4.522966
 Al  4.768602 13.560547  6.290053
 Al  0.824825 11.771119  4.492684
 Al  2.799937 13.658894  4.384834
 Al  4.665741  9.959896  6.367738
 Al  2.777233  9.845530  4.406953
 Al  4.736912  4.510886  8.100731
 Al  0.973009  6.312641  6.311795
 Al  2.847497 13.608393  1.013031
 Al  0.858392  8.102893  1.015829
 Al  4.677919  6.213212  2.851358
 Al  2.795120  6.088153  0.895476
 Al  4.784305  2.732849  2.709154
 Al  4.607465  6.353706  6.164282
 Al  2.731585  2.712564  0.793331
 Al  0.801885  2.704751  2.717011
 Al  4.550177 11.735419 11.734181
 Al  6.358485 11.734532 13.659136
 Al  2.651752 11.672684  9.885569
 Al  0.910994 13.564879 13.480773
 Al  6.256345  8.168217 13.564129
 Al  0.897109 10.082361 13.492722
 Al  2.872836  8.130903 13.466051
 Al  4.743034  4.666914 11.720427
 Al  4.819610  2.619198 13.563513
 Al  2.682378  2.561637 11.726912
 Al  2.704285 13.628447  8.083013
 Al  6.283151  8.155378  9.899706
 Al  2.766661  8.140821  9.900647
 Al  2.735853  2.562901  8.038576
 Al  2.826928  2.732279  4.687581
 Al  2.626334  4.643346  9.901413
 Ni  8.219700  2.696179  9.928837
 Ni 10.031314  0.890863  9.928308
 Ni 10.034069  2.712857  8.137376
 Ni 11.848142  2.713325  9.923840
 Ni 13.647332  0.903496  9.906331
 Ni 13.633689  2.720224  8.118531
 Ni  8.231888  6.410126  9.909008
 Ni 10.025663  4.528534  9.927458
 Ni 10.057298  6.324377  8.117874
 Ni 11.861143  6.319425  9.935157
 Ni 13.676572  4.516026  9.929123
 Ni 13.654194  6.330571  8.123295
 Ni  8.230351  9.876041  9.923859
 Ni 10.082480  8.138741  9.902547
 Ni 10.038520  9.945081  8.101670
 Ni 11.858394  9.949723  9.892740
 Ni 13.644592  8.136767  9.915331
 Ni 13.666828  9.935290  8.089987
 Ni  8.212266 13.544531  9.940026
 Ni 10.055295 11.738335  9.901057
 Ni 10.018633 13.548371  8.115697
 Ni 11.841553 13.554826  9.896702
 Ni 13.674822 11.754918  9.884878
 Ni 13.656555 13.552810  8.104394
 Ni  6.516242  2.689191  0.886830
 Ni 10.020208  0.897379 13.520095
 Ni 10.019170  2.713743 11.720197
 Ni 11.824819  2.714887 13.508668
 Ni 13.643052  0.921256 13.520493
 Ni 13.658265  2.702732 11.712784
 Ni  8.234881  6.418283 13.555635
 Ni 10.017705  4.522171 13.528037
 Ni 10.048484  6.328962 11.734268
 Ni 11.854007  6.307814 13.533738
 Ni 13.655716  4.512245 13.529245
 Ni 13.676948  6.326565 11.742560
 Ni  8.232328  9.951953 13.564690
 Ni 10.090723  8.148623 13.564261
 Ni 10.085039  9.949294 11.730673
 Ni 11.885670  9.930610 13.540895
 Ni 13.698503  8.120403 13.542630
 Ni 13.646595  9.948752 11.692231
 Ni  8.233427 13.454244 13.542243
 Ni 10.079891 11.732118 13.536972
 Ni 10.043145 13.541252 11.726639
 Ni 11.843301 13.588080 13.527681
 Ni 13.602793 11.788001 13.551690
 Ni 13.614779 13.561721 11.680563
 Ni  8.242461  2.691296  2.711639
 Ni 10.034414  0.898328  2.690631
 Ni 10.014776  2.703883  0.868915
 Ni 11.840738  2.706307  2.687150
 Ni 13.617781  0.876760  2.695742
 Ni 13.611222  2.700138  0.837833
 Ni  8.240394  6.338976  2.682769
 Ni 10.030689  4.511841  2.688026
 Ni 10.052934  6.327786  0.880994
 Ni 11.830149  6.314121  2.690097
 Ni 13.620318  4.532079  2.689457
 Ni 13.647250  6.280254  0.880358
 Ni  8.238585  9.937520  2.703903
 Ni 10.069174  8.132959  2.713586
 Ni 10.078212  9.935138  0.897026
 Ni 11.856114  9.940885  2.709741
 Ni 13.624613  8.107773  2.745791
 Ni 13.660324  9.966213  0.906516
 Ni  8.246797 13.549884  2.688653
 Ni 10.073278 11.747280  2.728872
 Ni 10.054835 13.557395  0.875803
 Ni 11.825671 13.562342  2.700403
 Ni 13.628405 11.775883  2.672513
 Ni 13.627584 13.576543  0.897623
 Ni  8.244830  2.711424  6.340358
 Ni 10.021638  0.894822  6.329612
 Ni 10.039946  2.708344  4.511350
 Ni 11.818279  2.698725  6.339260
 Ni 13.640705  0.910050  6.317145
 Ni 13.597135  2.707682  4.548505
 Ni  8.239833  6.312543  6.322755
 Ni 10.046224  4.517694  6.323369
 Ni 10.034804  6.317119  4.503691
 Ni 11.856347  6.317674  6.308262
 Ni 13.629855  4.501500  6.311381
 Ni 13.644856  6.296612  4.488306
 Ni  8.221244  9.947587  6.288817
 Ni 10.056610  8.131119  6.289615
 Ni 10.047984  9.943875  4.506352
 Ni 11.839727  9.944050  6.309200
 Ni 13.666045  8.144275  6.286200
 Ni 13.636107  9.913857  4.500892
 Ni  8.208448 13.552913  6.319564
 Ni 10.027000 11.749121  6.305777
 Ni 10.028264 13.557151  4.514551
 Ni 11.834883 13.565723  6.322617
 Ni 13.637104 11.746116  6.327261
 Ni 13.605663 13.608315  4.509354
 Ni  0.988668  2.704249  9.901626
 Ni  2.797508  0.875698  9.919145
 Ni  0.929315  0.904198  8.096505
 Ni  4.504542  2.804072  9.942911
 Ni  6.365417  0.887030  9.943170
 Ni  4.595831  6.297089  9.896540
 Ni  4.631790  0.864831  8.134718
 Ni  0.954770  4.497966  8.104456
 Ni  0.933869  6.369031  9.907226
 Ni  4.551061  8.147773 11.702995
 Ni  6.455480  4.556856  9.916418
 Ni  6.408582  6.372437  8.082212
 Ni  2.811649  6.332540  8.085775
 Ni  0.940210  9.909588  9.911785
 Ni  4.557170  8.129575  8.069920
 Ni  2.765771  9.945240  8.059524
 Ni  4.568612  9.988526  9.892978
 Ni  6.467554  6.449746 11.729891
 Ni  6.422060  9.926496  8.133643
 Ni  0.970641 13.567699  9.895114
 Ni  4.570854 11.792556  8.117184
 Ni  0.993875 11.748269  8.053549
 Ni  4.575886 13.515864  9.916626
 Ni  6.401669 11.712206  9.905230
 Ni  6.414383 13.536137  8.169350
 Ni  2.785873 11.790124  6.226583
 Ni  0.945664  2.683061 13.513743
 Ni  2.810398  0.868030 13.555641
 Ni  0.938563  0.864694 11.697010
 Ni  6.447337  0.802948 13.530838
 Ni  6.393230  2.705334 11.683716
 Ni  4.596855  0.867036 11.719941
 Ni  1.043817  6.337834 13.571109
 Ni  2.869639  4.388291 13.439839
 Ni  2.770792  6.309993 11.730688
 Ni  0.981766  4.506182 11.745985
 Ni  4.594297  6.307614 13.577455
 Ni  8.206592  2.705008 13.502899
 Ni  6.435902  4.571244 13.561039
 Ni  0.934561 11.782502 11.695528
 Ni  0.968725  8.136692 11.750061
 Ni  4.556224  9.993465 13.582388
 Ni  6.392778  9.945183 11.746628
 Ni  2.754674  9.963532 11.736196
 Ni  2.750848 11.818976 13.601740
 Ni  2.785164 13.548988 11.694970
 Ni  4.610936 13.558707 13.543126
 Ni  6.393797 13.470607 11.739387
 Ni  0.957170  0.897583  0.878351
 Ni  6.443320  0.872647  2.700924
 Ni  4.647977  0.925715  0.916561
 Ni  0.983464  6.239157  2.693236
 Ni  0.942524  4.463631  0.851779
 Ni  2.785135  4.335415  2.750358
 Ni  6.479221  4.516783  2.697394
 Ni  6.414851  6.362435  0.890845
 Ni  4.663922  4.482146  0.912531
 Ni  0.950107  9.957143  2.711055
 Ni  2.769742  8.030680  2.657074
 Ni  2.693395  9.899274  0.853487
 Ni  4.583330  9.925223  2.658409
 Ni  6.395473  8.138310  2.702863
 Ni  6.396461  9.916388  0.916666
 Ni  4.523508  8.093492  0.954648
 Ni  0.949872 13.619944  2.715586
 Ni  2.748148 11.738159  2.759725
 Ni  0.975528 11.814575  0.945722
 Ni  4.642658 13.577506  2.714862
 Ni  6.390913 11.736614  2.684605
 Ni  6.406896 13.526506  0.907787
 Ni  4.547325 11.738925  0.946815
 Ni  0.937162  2.714580  6.316741
 Ni  2.823078  0.815658  6.272905
 Ni  2.800498  1.123462  2.712848
 Ni  0.957498  0.938334  4.517734
 Ni  4.662201  2.671817  6.360485
 Ni  6.440516  0.925253  6.323564
 Ni  6.459237  2.710204  4.545733
 Ni  4.671084  0.940377  4.504023
 Ni  0.972244  8.152617  8.091310
 Ni  2.835163  4.519344  6.359609
 Ni  2.764861  6.272040  4.470524
 Ni  0.973313  4.481103  4.515568
 Ni  6.429980  2.679685  8.158727
 Ni  6.489093  6.321319  4.511572
 Ni  6.401449  4.506977  6.276872
 Ni  0.992454  9.939963  6.258969
 Ni  2.776763  8.149471  6.273042
 Ni  0.971474  8.091835  4.458695
 Ni  6.420897  8.134255  6.283634
 Ni  6.394225  9.937731  4.461800
 Ni  4.621029  8.149461  4.469718
 Ni  0.945975 13.571064  6.266215
 Ni  4.616378 11.732475  4.474379
 Ni  6.430078 11.733577  6.297834
 Ni  6.447148 13.551728  4.463041
 %ENDBLOCK POSITIONS_ABS
 
%block positions_abs_product 
     ang 
Al  8.218119  0.899405  8.148052
 Al 11.835205  0.890046  8.129717
 Al  8.272790  4.534233  8.155406
 Al 11.851745  4.527705  8.136770
 Al  8.323219  8.159579  8.047557
 Al 11.875231  8.143132  8.104604
 Al  8.224111 11.740115  8.131401
 Al 11.849831 11.758554  8.107795
 Al  8.210075  0.879662 11.728429
 Al 11.831825  0.914012 11.721445
 Al  8.204125  4.556112 11.715296
 Al 11.855576  4.523216 11.739878
 Al  8.377804  8.176543 11.749040
 Al 11.871571  8.129090 11.742861
 Al  8.283030 11.716675 11.664575
 Al 11.867800 11.759250 11.715881
 Al  8.231951  0.868228  0.872592
 Al 11.823302  0.920286  0.876364
 Al  8.221577  4.545502  0.901307
 Al 11.826407  4.511052  0.871562
 Al  8.298184  8.158893  0.957982
 Al 11.896046  8.127507  0.894829
 Al  8.333873 11.736487  0.983652
 Al 11.838442 11.760526  0.893156
 Al  8.236678  0.901668  4.522593
 Al 11.807339  0.908793  4.514868
 Al  8.253698  4.526970  4.501090
 Al 11.834879  4.517280  4.504310
 Al  8.242711  8.149390  4.512539
 Al 11.845825  8.125953  4.517114
 Al  8.223730 11.746751  4.501629
 Al 11.867534 11.757425  4.524937
 Al  4.769949 13.559841  6.304282
 Al  0.826963 11.771090  4.498600
 Al  2.797317 13.656433  4.394427
 Al  4.669288  9.950659  6.388416
 Al  2.785077  9.842756  4.426511
 Al  4.697975  4.701636  7.924872
 Al  0.965144  6.327087  6.299624
 Al  2.850428 13.599176  1.008734
 Al  0.861813  8.108673  1.019405
 Al  4.702877  6.386425  2.740869
 Al  2.786759  6.089946  0.888379
 Al  4.780355  2.666464  2.685954
 Al  4.673028  4.684177  4.845511
 Al  2.734162  2.722369  0.798354
 Al  0.804238  2.708367  2.715940
 Al  4.553066 11.733668 11.722895
 Al  6.356136 11.740452 13.656269
 Al  2.651498 11.667825  9.886515
 Al  0.913188 13.570454 13.480270
 Al  6.260134  8.174766 13.557797
 Al  0.895239 10.086031 13.493468
 Al  2.867046  8.136265 13.459548
 Al  4.743593  4.677873 11.709762
 Al  4.820075  2.627893 13.560903
 Al  2.689532  2.575067 11.716665
 Al  2.703156 13.623568  8.097480
 Al  6.280679  8.157651  9.899048
 Al  2.770162  8.137752  9.893433
 Al  2.738287  2.584648  8.033178
 Al  2.760468  2.641451  4.698511
 Al  2.637700  4.659174  9.878883
 Ni  8.218743  2.707096  9.931855
 Ni 10.029950  0.896875  9.936449
 Ni 10.048193  2.711400  8.147243
 Ni 11.848983  2.715521  9.937414
 Ni 13.648351  0.907588  9.914456
 Ni 13.621326  2.719676  8.128548
 Ni  8.243994  6.418473  9.918759
 Ni 10.044823  4.534241  9.944598
 Ni 10.075189  6.336113  8.127024
 Ni 11.867042  6.326297  9.944756
 Ni 13.667375  4.520232  9.938665
 Ni 13.650245  6.338697  8.125284
 Ni  8.232286  9.882993  9.929231
 Ni 10.090613  8.147701  9.911950
 Ni 10.045458  9.955077  8.109416
 Ni 11.859434  9.958084  9.901446
 Ni 13.641004  8.142765  9.922853
 Ni 13.663816  9.942056  8.096192
 Ni  8.211514 13.552638  9.943903
 Ni 10.055696 11.745053  9.909038
 Ni 10.015789 13.553597  8.123434
 Ni 11.841699 13.560198  9.905468
 Ni 13.676184 11.759116  9.891808
 Ni 13.657759 13.552900  8.111611
 Ni  6.510804  2.701304  0.894316
 Ni 10.014000  0.905325 13.525540
 Ni 10.016980  2.721133 11.727470
 Ni 11.821939  2.721598 13.516475
 Ni 13.643622  0.927693 13.524082
 Ni 13.659784  2.709112 11.719600
 Ni  8.234726  6.422032 13.550398
 Ni 10.004844  4.528314 13.534960
 Ni 10.051345  6.333115 11.740511
 Ni 11.851601  6.312093 13.546375
 Ni 13.664265  4.517991 13.539069
 Ni 13.676547  6.330089 11.751225
 Ni  8.230778  9.957124 13.564405
 Ni 10.087442  8.152911 13.570310
 Ni 10.085251  9.955852 11.736885
 Ni 11.885360  9.935560 13.547122
 Ni 13.700720  8.123141 13.548876
 Ni 13.646936  9.952727 11.696995
 Ni  8.229688 13.461381 13.543327
 Ni 10.076694 11.737593 13.540687
 Ni 10.040553 13.548087 11.732350
 Ni 11.841399 13.594528 13.532882
 Ni 13.603911 11.793422 13.555512
 Ni 13.616325 13.567757 11.686536
 Ni  8.222226  2.710044  2.721267
 Ni 10.024216  0.907176  2.693363
 Ni 10.002897  2.713306  0.874749
 Ni 11.837678  2.711927  2.686771
 Ni 13.617058  0.877763  2.695233
 Ni 13.613190  2.705869  0.840258
 Ni  8.214257  6.342941  2.702522
 Ni 10.028261  4.520218  2.690452
 Ni 10.038203  6.331601  0.890516
 Ni 11.830846  6.320714  2.689002
 Ni 13.620353  4.539342  2.689331
 Ni 13.656534  6.285049  0.888511
 Ni  8.242265  9.949220  2.711775
 Ni 10.062682  8.135426  2.716611
 Ni 10.075103  9.939178  0.899723
 Ni 11.854133  9.943262  2.711369
 Ni 13.630114  8.112727  2.749144
 Ni 13.662371  9.970151  0.910651
 Ni  8.246594 13.547380  2.694487
 Ni 10.073516 11.751558  2.732162
 Ni 10.049800 13.563561  0.878595
 Ni 11.822196 13.568395  2.700978
 Ni 13.627664 11.778377  2.674461
 Ni 13.627772 13.580330  0.898509
 Ni  8.266003  2.696201  6.348816
 Ni 10.028342  0.893127  6.335337
 Ni 10.037443  2.712699  4.512147
 Ni 11.817919  2.701195  6.340394
 Ni 13.629862  0.904360  6.322866
 Ni 13.593550  2.708105  4.545897
 Ni  8.268377  6.338253  6.327834
 Ni 10.047675  4.522343  6.325283
 Ni 10.042519  6.325612  4.503218
 Ni 11.858698  6.322248  6.308623
 Ni 13.627575  4.505458  6.310912
 Ni 13.641540  6.305269  4.485701
 Ni  8.218287  9.942713  6.299779
 Ni 10.072230  8.140375  6.295073
 Ni 10.048580  9.949299  4.512622
 Ni 11.842284  9.953897  6.313835
 Ni 13.660205  8.152203  6.285758
 Ni 13.635798  9.921034  4.503183
 Ni  8.205982 13.560800  6.328510
 Ni 10.021795 11.751323  6.312577
 Ni 10.026439 13.559590  4.519407
 Ni 11.832740 13.559779  6.326825
 Ni 13.640525 11.745754  6.331440
 Ni 13.600718 13.603912  4.512002
 Ni  0.989150  2.714374  9.901034
 Ni  2.800147  0.889799  9.915151
 Ni  0.927886  0.906982  8.105061
 Ni  4.500736  2.851271  9.896309
 Ni  6.359127  0.903375  9.939110
 Ni  4.593215  6.297798  9.866471
 Ni  4.635054  0.876633  8.142537
 Ni  0.926611  4.501173  8.113283
 Ni  0.924289  6.372001  9.913988
 Ni  4.548533  8.146120 11.700164
 Ni  6.435476  4.573960  9.877239
 Ni  6.464489  6.403703  8.079672
 Ni  2.763436  6.347414  8.074981
 Ni  0.940281  9.910123  9.915065
 Ni  4.564531  8.057599  8.028511
 Ni  2.772838  9.932661  8.060407
 Ni  4.568009  9.976705  9.882304
 Ni  6.463445  6.455200 11.723795
 Ni  6.423895  9.925772  8.141047
 Ni  0.971917 13.571573  9.900792
 Ni  4.570964 11.793118  8.124540
 Ni  0.995707 11.743798  8.059654
 Ni  4.574281 13.520485  9.919817
 Ni  6.401275 11.716969  9.907568
 Ni  6.413559 13.542856  8.177331
 Ni  2.787447 11.789889  6.235288
 Ni  0.950750  2.691075 13.516044
 Ni  2.812699  0.877228 13.552716
 Ni  0.942648  0.875382 11.698466
 Ni  6.443751  0.810632 13.531481
 Ni  6.381417  2.722160 11.670209
 Ni  4.596457  0.883815 11.712157
 Ni  1.046002  6.339183 13.572745
 Ni  2.866951  4.392297 13.434002
 Ni  2.770906  6.312336 11.725278
 Ni  0.984278  4.512303 11.741111
 Ni  4.591606  6.315426 13.572295
 Ni  8.197233  2.714385 13.503013
 Ni  6.435225  4.579075 13.558919
 Ni  0.935716 11.786017 11.697548
 Ni  0.968075  8.138538 11.750255
 Ni  4.556278 10.001772 13.572055
 Ni  6.392661  9.946499 11.742906
 Ni  2.754365  9.964326 11.731848
 Ni  2.751386 11.819785 13.594660
 Ni  2.787324 13.555816 11.692356
 Ni  4.609449 13.559188 13.534777
 Ni  6.391804 13.481949 11.737414
 Ni  0.958901  0.901176  0.877491
 Ni  6.449824  0.864384  2.713903
 Ni  4.649077  0.913466  0.905224
 Ni  1.002383  6.246743  2.707821
 Ni  0.956574  4.464129  0.876538
 Ni  2.861703  4.348539  2.811441
 Ni  6.375825  4.539093  2.744917
 Ni  6.421836  6.375111  0.880578
 Ni  4.653383  4.483027  0.891886
 Ni  0.954738  9.961631  2.716900
 Ni  2.771567  8.051115  2.659307
 Ni  2.691191  9.910507  0.850382
 Ni  4.585178  9.916381  2.683891
 Ni  6.412820  8.171343  2.719697
 Ni  6.398003  9.927441  0.916792
 Ni  4.521185  8.136192  0.925942
 Ni  0.949894 13.615608  2.714639
 Ni  2.751490 11.735536  2.767763
 Ni  0.977655 11.819064  0.946812
 Ni  4.642131 13.571543  2.719020
 Ni  6.391712 11.735462  2.695511
 Ni  6.405510 13.525625  0.910594
 Ni  4.549286 11.729690  0.953024
 Ni  0.905863  2.698929  6.328302
 Ni  2.821466  0.800664  6.300198
 Ni  2.789955  1.104671  2.702344
 Ni  0.940175  0.920401  4.519855
 Ni  4.650230  2.697960  6.368072
 Ni  6.431496  0.941328  6.334162
 Ni  6.439292  2.728982  4.559082
 Ni  4.663536  0.910564  4.515400
 Ni  0.960373  8.161257  8.094298
 Ni  2.728809  4.498234  6.345356
 Ni  2.816072  6.305490  4.488894
 Ni  0.960532  4.485365  4.503175
 Ni  6.419889  2.712609  8.158624
 Ni  6.446460  6.344830  4.565332
 Ni  6.545986  4.514489  6.347506
 Ni  0.996201  9.936521  6.263000
 Ni  2.788985  8.132232  6.281678
 Ni  0.976375  8.097371  4.464364
 Ni  6.413838  8.107518  6.304978
 Ni  6.394746  9.938131  4.485973
 Ni  4.621515  8.125298  4.559018
 Ni  0.944270 13.568340  6.276637
 Ni  4.618417 11.733506  4.485878
 Ni  6.429570 11.735508  6.311951
 Ni  6.450288 13.548678  4.474866
%endblock positions_abs_product 
%block positions_abs_intermediate 
     ang 
Al  8.221303  0.893351  8.144028
 Al 11.835134  0.891696  8.126208
 Al  8.243593  4.530831  8.135032
 Al 11.850880  4.525141  8.135470
 Al  8.312503  8.152047  8.041486
 Al 11.872765  8.138613  8.101288
 Al  8.224310 11.738528  8.128033
 Al 11.849705 11.754712  8.104234
 Al  8.212897  0.874136 11.728071
 Al 11.832886  0.911620 11.717009
 Al  8.210542  4.552442 11.721284
 Al 11.854093  4.519723 11.730805
 Al  8.376797  8.173863 11.748398
 Al 11.871258  8.126933 11.737011
 Al  8.284292 11.713483 11.663386
 Al 11.867665 11.756033 11.712047
 Al  8.235885  0.864833  0.870314
 Al 11.825459  0.917065  0.874601
 Al  8.233042  4.540372  0.889369
 Al 11.828246  4.507421  0.871151
 Al  8.300760  8.155989  0.955865
 Al 11.896406  8.125782  0.892961
 Al  8.334899 11.734248  0.983328
 Al 11.839469 11.758411  0.891688
 Al  8.236886  0.900098  4.518741
 Al 11.808396  0.908114  4.514685
 Al  8.251694  4.518062  4.506454
 Al 11.835412  4.515614  4.503620
 Al  8.239123  8.145318  4.505711
 Al 11.845574  8.121525  4.517932
 Al  8.223887 11.746542  4.495557
 Al 11.868663 11.756345  4.523951
 Al  4.769276 13.560194  6.297168
 Al  0.825894 11.771104  4.495642
 Al  2.798627 13.657663  4.389630
 Al  4.667514  9.955277  6.378077
 Al  2.781155  9.844143  4.416732
 Al  4.717444  4.606261  8.012801
 Al  0.969077  6.319864  6.305709
 Al  2.848962 13.603784  1.010882
 Al  0.860102  8.105783  1.017617
 Al  4.690398  6.299818  2.796114
 Al  2.790939  6.089049  0.891927
 Al  4.782330  2.699657  2.697554
 Al  4.640247  5.518941  5.504897
 Al  2.732874  2.717467  0.795842
 Al  0.803061  2.706559  2.716476
 Al  4.551621 11.734543 11.728538
 Al  6.357311 11.737492 13.657702
 Al  2.651625 11.670254  9.886042
 Al  0.912091 13.567667 13.480522
 Al  6.258239  8.171491 13.560963
 Al  0.896174 10.084196 13.493095
 Al  2.869941  8.133584 13.462800
 Al  4.743314  4.672393 11.715094
 Al  4.819842  2.623545 13.562208
 Al  2.685955  2.568352 11.721789
 Al  2.703720 13.626008  8.090246
 Al  6.281915  8.156514  9.899377
 Al  2.768411  8.139286  9.897040
 Al  2.737070  2.573775  8.035877
 Al  2.793698  2.686865  4.693046
 Al  2.632017  4.651260  9.890148
 Ni  8.219222  2.701638  9.930346
 Ni 10.030632  0.893869  9.932378
 Ni 10.041131  2.712129  8.142309
 Ni 11.848562  2.714423  9.930627
 Ni 13.647842  0.905542  9.910393
 Ni 13.627508  2.719950  8.123540
 Ni  8.237941  6.414299  9.913883
 Ni 10.035243  4.531387  9.936028
 Ni 10.066243  6.330245  8.122449
 Ni 11.864092  6.322861  9.939956
 Ni 13.671973  4.518129  9.933894
 Ni 13.652219  6.334634  8.124290
 Ni  8.231319  9.879517  9.926545
 Ni 10.086547  8.143221  9.907249
 Ni 10.041989  9.950079  8.105543
 Ni 11.858914  9.953903  9.897093
 Ni 13.642798  8.139766  9.919092
 Ni 13.665322  9.938673  8.093089
 Ni  8.211890 13.548585  9.941965
 Ni 10.055496 11.741694  9.905048
 Ni 10.017211 13.550984  8.119566
 Ni 11.841626 13.557512  9.901085
 Ni 13.675503 11.757017  9.888343
 Ni 13.657157 13.552855  8.108002
 Ni  6.513523  2.695248  0.890573
 Ni 10.017104  0.901352 13.522817
 Ni 10.018075  2.717438 11.723833
 Ni 11.823379  2.718242 13.512571
 Ni 13.643337  0.924474 13.522288
 Ni 13.659024  2.705922 11.716192
 Ni  8.234804  6.420157 13.553017
 Ni 10.011275  4.525243 13.531499
 Ni 10.049915  6.331039 11.737389
 Ni 11.852804  6.309954 13.540057
 Ni 13.659991  4.515118 13.534157
 Ni 13.676748  6.328327 11.746893
 Ni  8.231553  9.954538 13.564548
 Ni 10.089083  8.150767 13.567285
 Ni 10.085145  9.952573 11.733779
 Ni 11.885515  9.933085 13.544008
 Ni 13.699612  8.121772 13.545753
 Ni 13.646765  9.950739 11.694613
 Ni  8.231558 13.457813 13.542785
 Ni 10.078292 11.734855 13.538830
 Ni 10.041849 13.544669 11.729494
 Ni 11.842350 13.591304 13.530281
 Ni 13.603352 11.790712 13.553601
 Ni 13.615552 13.564739 11.683550
 Ni  8.232344  2.700670  2.716453
 Ni 10.029315  0.902752  2.691997
 Ni 10.008836  2.708595  0.871832
 Ni 11.839208  2.709117  2.686960
 Ni 13.617419  0.877261  2.695488
 Ni 13.612206  2.703003  0.839046
 Ni  8.227326  6.340959  2.692646
 Ni 10.029475  4.516030  2.689239
 Ni 10.045569  6.329693  0.885755
 Ni 11.830498  6.317417  2.689550
 Ni 13.620335  4.535710  2.689394
 Ni 13.651892  6.282652  0.884434
 Ni  8.240425  9.943370  2.707839
 Ni 10.065928  8.134193  2.715099
 Ni 10.076657  9.937158  0.898374
 Ni 11.855124  9.942074  2.710555
 Ni 13.627364  8.110250  2.747467
 Ni 13.661347  9.968182  0.908583
 Ni  8.246695 13.548632  2.691570
 Ni 10.073397 11.749419  2.730517
 Ni 10.052317 13.560478  0.877199
 Ni 11.823934 13.565368  2.700691
 Ni 13.628034 11.777130  2.673487
 Ni 13.627678 13.578436  0.898066
 Ni  8.255416  2.703812  6.344587
 Ni 10.024990  0.893974  6.332474
 Ni 10.038695  2.710521  4.511748
 Ni 11.818099  2.699960  6.339827
 Ni 13.635283  0.907205  6.320006
 Ni 13.595342  2.707893  4.547201
 Ni  8.254105  6.325398  6.325294
 Ni 10.046950  4.520018  6.324326
 Ni 10.038662  6.321366  4.503454
 Ni 11.857523  6.319961  6.308443
 Ni 13.628715  4.503479  6.311147
 Ni 13.643198  6.300941  4.487004
 Ni  8.219765  9.945150  6.294298
 Ni 10.064420  8.135747  6.292344
 Ni 10.048282  9.946587  4.509487
 Ni 11.841006  9.948973  6.311517
 Ni 13.663125  8.148239  6.285979
 Ni 13.635953  9.917446  4.502038
 Ni  8.207215 13.556857  6.324037
 Ni 10.024398 11.750222  6.309177
 Ni 10.027352 13.558371  4.516979
 Ni 11.833812 13.562751  6.324721
 Ni 13.638815 11.745935  6.329350
 Ni 13.603191 13.606114  4.510678
 Ni  0.988909  2.709312  9.901330
 Ni  2.798827  0.882749  9.917148
 Ni  0.928600  0.905590  8.100783
 Ni  4.502639  2.827672  9.919610
 Ni  6.362272  0.895203  9.941140
 Ni  4.594523  6.297443  9.881506
 Ni  4.633422  0.870732  8.138628
 Ni  0.940691  4.499570  8.108870
 Ni  0.929079  6.370516  9.910607
 Ni  4.549797  8.146947 11.701579
 Ni  6.445478  4.565408  9.896828
 Ni  6.436536  6.388070  8.080942
 Ni  2.787542  6.339977  8.080378
 Ni  0.940245  9.909856  9.913425
 Ni  4.560851  8.093587  8.049215
 Ni  2.769305  9.938951  8.059965
 Ni  4.568311  9.982615  9.887641
 Ni  6.465499  6.452473 11.726843
 Ni  6.422977  9.926134  8.137345
 Ni  0.971279 13.569636  9.897953
 Ni  4.570909 11.792837  8.120862
 Ni  0.994791 11.746034  8.056602
 Ni  4.575084 13.518175  9.918222
 Ni  6.401472 11.714587  9.906399
 Ni  6.413971 13.539497  8.173341
 Ni  2.786660 11.790007  6.230936
 Ni  0.948207  2.687068 13.514893
 Ni  2.811548  0.872629 13.554178
 Ni  0.940605  0.870038 11.697738
 Ni  6.445544  0.806790 13.531160
 Ni  6.387324  2.713747 11.676963
 Ni  4.596656  0.875426 11.716049
 Ni  1.044910  6.338509 13.571927
 Ni  2.868295  4.390294 13.436921
 Ni  2.770849  6.311165 11.727983
 Ni  0.983022  4.509243 11.743548
 Ni  4.592952  6.311520 13.574875
 Ni  8.201913  2.709697 13.502956
 Ni  6.435564  4.575159 13.559979
 Ni  0.935139 11.784260 11.696538
 Ni  0.968400  8.137615 11.750158
 Ni  4.556251  9.997618 13.577221
 Ni  6.392720  9.945841 11.744767
 Ni  2.754520  9.963929 11.734022
 Ni  2.751117 11.819381 13.598200
 Ni  2.786244 13.552402 11.693663
 Ni  4.610192 13.558947 13.538951
 Ni  6.392800 13.476278 11.738400
 Ni  0.958036  0.899380  0.877921
 Ni  6.446572  0.868516  2.707413
 Ni  4.648527  0.919591  0.910893
 Ni  0.992924  6.242950  2.700529
 Ni  0.949549  4.463880  0.864159
 Ni  2.823419  4.341977  2.780899
 Ni  6.427523  4.527938  2.721155
 Ni  6.418344  6.368773  0.885711
 Ni  4.658653  4.482586  0.902208
 Ni  0.952422  9.959387  2.713977
 Ni  2.770654  8.040898  2.658190
 Ni  2.692293  9.904891  0.851934
 Ni  4.584254  9.920802  2.671150
 Ni  6.404146  8.154827  2.711280
 Ni  6.397232  9.921915  0.916729
 Ni  4.522346  8.114842  0.940295
 Ni  0.949883 13.617776  2.715112
 Ni  2.749819 11.736847  2.763744
 Ni  0.976591 11.816820  0.946267
 Ni  4.642395 13.574525  2.716941
 Ni  6.391313 11.736038  2.690058
 Ni  6.406203 13.526066  0.909191
 Ni  4.548306 11.734308  0.949919
 Ni  0.921513  2.706754  6.322521
 Ni  2.822272  0.808161  6.286552
 Ni  2.795227  1.114066  2.707596
 Ni  0.948836  0.929368  4.518795
 Ni  4.656215  2.684889  6.364278
 Ni  6.436006  0.933291  6.328863
 Ni  6.449265  2.719593  4.552408
 Ni  4.667310  0.925471  4.509711
 Ni  0.966309  8.156937  8.092804
 Ni  2.781986  4.508789  6.352482
 Ni  2.790467  6.288765  4.479709
 Ni  0.966922  4.483234  4.509371
 Ni  6.424935  2.696147  8.158676
 Ni  6.467776  6.333074  4.538452
 Ni  6.473718  4.510733  6.312189
 Ni  0.994327  9.938242  6.260984
 Ni  2.782874  8.140852  6.277360
 Ni  0.973925  8.094603  4.461529
 Ni  6.417368  8.120886  6.294306
 Ni  6.394486  9.937931  4.473886
 Ni  4.621272  8.137379  4.514368
 Ni  0.945122 13.569702  6.271426
 Ni  4.617398 11.732991  4.480128
 Ni  6.429824 11.734542  6.304892
 Ni  6.448718 13.550203  4.468954
%endblock positions_abs_intermediate 
     kpoint_mp_grid 1 1 1 
     fix_com : false