#######################################################
#CASTEP cell file: /home/u2093113/Documents/kART/barriers/CASTEP/castep.cell
#Created using the Atomic Simulation Environment (ASE)#
#######################################################

%BLOCK LATTICE_CART
14.464828  0.000000  0.000000
 0.000000 14.464828  0.000000
 0.000000  0.000000 14.464828
%ENDBLOCK LATTICE_CART

%BLOCK POSITIONS_ABS
Ni 13.604479  2.695806 11.805327
Al 13.642766  0.896374 10.004984
Ni 13.602243  6.418675 11.779904
Al 13.628657  4.539205 10.002911
Ni 13.605120  9.902134 11.770842
Al 13.697917  8.148823  9.918174
Ni 13.612436 13.538371 11.786619
Al 13.650328 11.736470  9.988877
Ni 11.842357  2.702756  2.726770
Al 13.622704  0.867952 13.595060
Ni 13.575781  6.383761  0.958353
Al 13.617933  4.550422 13.595522
Ni 13.583250  9.942202  0.978966
Al 13.724493  8.171773 13.618515
Ni 13.601078 13.495685  0.953841
Al 13.674900 11.722057 13.552823
Ni 13.608597  2.718435  4.543502
Al 13.654740  0.885762  2.737127
Ni 13.598984  6.317661  4.563261
Al 13.632832  4.533321  2.717095
Ni 13.627830  9.930656  4.588896
Al 13.683598  8.137202  2.805135
Ni 13.637105 13.564831  4.570121
Al 13.718779 11.739685  2.836967
Ni 13.596546  2.725197  8.203459
Al 13.668945  0.903400  6.372584
Ni 13.609483  6.325586  8.170240
Al 13.644263  4.520564  6.385387
Ni 13.615611  9.952160  8.152062
Al 13.649479  8.131644  6.367070
Ni 13.607879 13.545257  8.179570
Al 13.659558 11.751393  6.356787
Ni  0.895883  0.904854 11.790581
Ni  0.898634  2.689287  9.989933
Ni  2.736595  2.706943 11.730862
Ni  4.466084  0.808645 11.735810
Ni  4.532155  2.701719  9.907783
Ni  2.689361  0.860512  9.971494
Ni  6.299256  2.636906 11.736384
Ni  8.134309  0.821400 11.735732
Al 10.134223 13.575626  8.121989
Ni  6.289058  0.855615  9.926236
Ni  9.951972  2.678697 11.779291
Ni 11.806538  0.854832 11.798142
Ni  9.954420  6.381810 11.758637
Ni 10.003045  0.882932  9.965445
Ni  0.909623  4.507362 11.817124
Ni  0.902499  6.339566 10.050295
Ni  2.777548  6.326175 11.828885
Al  6.191328 11.731714  6.329002
Ni  6.345243  4.568765  9.960552
Ni  2.718109  4.545740 10.013080
Ni  6.325981  6.391625 11.758098
Al  8.150901 13.665822  6.298336
Al  2.542383 13.450125 11.696856
Al  2.802467 11.733589  6.356256
Ni  9.962822  8.166657 13.560843
Ni 11.865118  4.563255 11.796240
Ni 11.811705  6.380821  9.976915
Ni  8.170797  6.336291  9.953518
Ni  0.884775  8.136155 11.825671
Al  2.476885  8.243899  6.362294
Al  4.555762 13.504850  9.878089
Ni  4.530409  8.236076 11.782205
Al  0.771186 11.843330  8.145606
Ni  2.673537  8.170496  9.964563
Ni  6.335601  9.948879 11.727685
Ni  9.980841  8.142029  9.948486
Ni  8.147285  9.958984  9.895987
Al 10.047827  9.949216  8.193260
Ni  9.940078  9.991023 11.738733
Ni 11.820477  6.411293 13.593460
Ni 11.818613  9.944311  9.971183
Al  8.172431  9.887033  6.267762
Ni  0.821289 11.715102 11.766961
Ni  0.836014 13.556046  9.952953
Ni  2.639167 11.682516  9.925155
Ni  4.489795 11.687713 11.679740
Ni  2.619891  9.946127  8.181297
Ni  4.497583 11.724021  8.148726
Ni  6.318977 13.492486 11.718436
Ni  9.961130 11.789506  9.927182
Al  4.510605  6.464395 10.019395
Ni  6.348789 11.728806  9.870479
Ni  9.940046 13.506179 11.743202
Ni 11.795333 11.720448 11.785139
Ni 11.821591 13.541895  9.990988
Ni  8.181249 11.767739  8.047206
Al  2.523857  6.283231  8.174875
Ni  0.892503  2.700410 13.593214
Ni  2.683223  2.714600  0.943690
Ni  4.504059  0.870774  0.911017
Ni  4.551355  2.689874 13.566028
Ni  6.346206  2.670219  0.905213
Ni  8.160346  0.878854  0.950608
Al 10.113314  2.656774  8.154068
Ni  6.275036  0.799006 13.573858
Al  6.461608  6.325642  8.082303
Ni 11.842846  0.843965  0.932443
Ni 11.794175  2.691266 13.572390
Ni  9.997406  0.858542 13.569772
Al  4.496947  2.747637  6.535896
Ni  0.920440  6.326076 13.592877
Ni  2.734539  6.332148  0.876684
Ni  4.539691  4.542711  0.902930
Ni  6.394539  6.398511  0.978444
Ni  6.301914  4.523856 13.553919
Ni  8.124409  6.342993 13.548281
Ni  8.128503  4.502513 11.793851
Ni  9.922825  6.267658  0.926829
Ni 13.583918  2.708197  0.918417
Al  8.236463 13.617703  2.892541
Ni 11.783522  4.536306  0.894656
Ni  0.903644  8.147296  0.943307
Ni  0.888632  9.947186 13.615043
Ni  2.725606  9.980060  0.913826
Ni  4.582649  8.214455  0.954922
Al  0.885026 11.726036  4.454581
Ni  2.731533  8.173879 13.608446
Ni  6.349551 11.763460 13.582390
Al  6.320001  8.152327  2.812807
Ni  6.391539  8.240826 13.631759
Ni  9.948266  9.992169  0.977020
Al  4.468449  8.083504  4.647424
Ni 11.801175  9.964403 13.623380
Ni  8.155026 10.008302 13.591696
Ni  0.879215 11.783211  0.942572
Ni  0.895864 13.582084 13.610649
Ni  2.709852 13.575497  0.886654
Ni  4.525054 11.772112  0.952936
Al 10.081539  6.256884  4.660059
Ni  2.688243 11.751906 13.569868
Al  8.172067  6.225183  2.851819
Ni  8.211344 11.821966  0.983757
Ni  8.143862 13.546290 13.562623
Al  4.473825  4.632504  4.523968
Ni  9.972191 13.574543  0.972326
Al  1.039806  6.370025  2.735844
Ni 11.797977 13.492429 13.605105
Ni  0.920143  0.877174  4.558515
Al 10.132520  2.714673  4.570651
Ni  2.801526  2.730591  4.600654
Ni  2.719940  0.892667  6.365314
Ni  4.525918  2.723693  2.727652
Ni  2.703222  0.908293  2.732388
Al  9.980007  6.362912  8.091667
Al  8.057473  4.546538  0.833068
Al  8.014293  2.644591  2.797560
Ni  6.303585  0.860952  2.749020
Al  4.473155  0.852258  4.506567
Ni 11.869059  0.897305  4.553308
Al  0.936937  2.726591  2.919949
Ni 10.014176  0.934252  2.781753
Al  9.983238 11.773422 13.580052
Ni  0.911143  4.543985  4.567491
Al 11.741657 11.736371  1.051406
Ni  2.682203  6.383550  4.648013
Al  8.089397 11.684718 11.725790
Ni  4.494310  6.365775  2.734744
Ni  2.699708  4.532744  2.715572
Ni  6.309891  6.311201  4.578432
Al  6.367304 13.536122  0.969035
Al  4.537924 13.438475 13.514180
Ni  6.315868  4.526823  2.728255
Ni  8.164166  4.423532  4.563489
Ni 11.846296  4.516207  4.538652
Ni 11.777273  6.320611  2.741354
Ni  9.954459  4.437369  2.715970
Ni  0.801608  8.158067  4.498297
Ni  0.889796  9.949949  2.688236
Ni  2.683990  9.952354  4.535443
Al 11.637228  8.154065  0.950453
Ni  4.545160  9.946627  2.755602
Ni  2.730041  8.175121  2.748043
Ni  6.317878  9.928808  4.571827
Ni  8.182327  8.076432  4.536339
Ni  8.155612  9.940174  2.793862
Al  6.403407 10.128717  0.995039
Ni  9.989878  9.931080  4.570048
Ni 11.821635  8.125750  4.544309
Ni 11.801446  9.926258  2.778809
Ni  9.961722  8.085038  2.783302
Al  8.283426  8.152413  0.865675
Al  4.542305  9.994974 13.584263
Ni  0.863505 13.567711  2.724992
Ni  2.685404 13.530222  4.534418
Ni  4.488875 11.753535  4.536515
Ni  4.514280 13.557013  2.727334
Ni  2.701840 11.747968  2.728380
Ni  6.326372 13.574665  4.572244
Ni  8.148734 11.766568  4.627274
Al 10.081041  4.587209 13.452133
Ni  6.373192 11.799756  2.805418
Ni 10.008246 13.600617  4.613213
Ni 11.834677 11.744640  4.545573
Ni 11.810655 13.551943  2.782673
Ni  9.979409 11.773227  2.823909
Ni  0.896949  0.881374  8.146366
Ni  0.936376  2.694617  6.339951
Ni  2.674281  2.738726  8.205082
Ni  4.473022  0.886946  8.173344
Ni  6.198920  2.732023  4.587920
Ni  2.667678 13.523691  8.168953
Ni  6.336643  2.748351  8.189852
Ni  8.188269  0.923710  8.136224
Ni  8.149206  0.996660  4.586721
Ni  6.262354  0.924176  6.359228
Ni 10.020366  4.442636  6.390617
Ni 11.874268  0.891767  8.183986
Ni 11.877426  2.708994  6.373552
Ni 10.032041  0.951396  6.360441
Al  2.729847  4.456258 13.562258
Ni  0.844174  4.488030  8.200505
Ni  0.740335  6.324840  6.372515
Al  4.624818  6.477130 13.631147
Ni  4.449344  7.960200  8.019270
Al  0.827729  4.501284  0.880155
Al 10.089403  2.596047  0.943271
Ni  2.704199  4.563453  6.391517
Ni  6.354607  8.132618  9.889679
Ni  8.249605  4.455623  8.234322
Ni  8.194628  6.267480  6.323472
Ni  6.277878  4.553942  6.375806
Al  8.044392  2.544313 13.470510
Ni 11.805890  2.699081 10.021335
Ni 11.834170  6.316932  6.383511
Ni 11.791431  4.537996  8.229637
Ni  0.793516  8.149643  8.184502
Ni  0.855285 10.062820  6.352531
Al  2.737082  1.002790 13.543078
Al  0.888457  0.907363  0.962852
Al  8.090996 13.607987  9.877138
Ni  4.473539  9.881162  6.383896
Ni  4.499091  4.687849  8.185102
Ni  6.364608  9.901968  8.068279
Ni  8.209661  8.152902  8.115955
Al 11.679603  8.200188 11.791234
Ni  6.337165  8.096838  6.320356
Al  8.156576  8.188681 11.765302
Ni 11.821229  8.146746  8.169749
Ni 11.817950  9.949562  6.353661
Ni 10.026520  8.147290  6.346219
Al  4.566074  9.883641  9.828616
Ni  0.889241 13.522792  6.312841
Al  2.622342  9.955955 11.807995
Al  0.758836  9.879232  9.978425
Ni  4.504736 13.577036  6.362547
Al  8.054961  2.625554 10.016521
Al  8.023797  2.715783  6.372441
Ni  6.351622 13.549431  8.086424
Al 10.055468  4.558563 10.125620
Al  4.616490  4.425765 11.711578
Ni 10.018619 11.747499  6.354898
Ni 11.837299 11.740376  8.170943
Ni 11.845441 13.555359  6.343487
%ENDBLOCK POSITIONS_ABS

FIX_ALL_CELL: TRUE
KPOINT_MP_GRID: 1 1 1
