#######################################################
#CASTEP cell file: /home/u2093113/Documents/kART/CASTEP/castep.cell
#Created using the Atomic Simulation Environment (ASE)#
#######################################################

%BLOCK LATTICE_CART
14.464828  0.000000  0.000000
 0.000000 14.464828  0.000000
 0.000000  0.000000 14.464828
%ENDBLOCK LATTICE_CART

%BLOCK POSITIONS_ABS
Al  9.950866 13.559866  0.952831
Al 13.535595 13.664388  0.929406
Al  9.979365  2.733871  0.956100
Al 13.439291  2.637584  0.934921
Al 10.048183  6.336543  0.846451
Al 13.480884  6.331913  0.929532
Al  9.985005  9.945663  0.928047
Al 13.487925  9.955482  0.934478
Al  9.960663 13.535180  4.521822
Al 13.529885 13.647861  4.516580
Al  9.929874  2.779626  4.522703
Al 13.518945  2.643496  4.617419
Al 10.120914  6.365421  4.555247
Al 13.509860  6.329931  4.500644
Al 10.026720  9.904623  4.474050
Al 13.482925  9.955011  4.482954
Al 10.023419 13.510325  8.128064
Al 13.521173 13.556122  8.051548
Al  9.988262  2.748398  8.144353
Al 13.528268  2.725450  8.059066
Al 10.108290  6.367991  8.242550
Al 13.614450  6.330425  8.061294
Al 10.125075  9.920012  8.251920
Al 13.636209  9.935884  8.133555
Al 10.019260 13.545208 11.776429
Al 13.508465 13.593106 11.845411
Al  9.958824  2.726944 11.774918
Al 13.444232  2.714912 11.737263
Al  9.995261  6.342303 11.769060
Al 13.556839  6.280886 11.882396
Al 10.033053  9.944418 11.757899
Al 13.643694  9.952077 11.802307
Al  6.581461 11.743326 13.549467
Al  2.594728  9.972081 11.762061
Al  4.602788 11.850109 11.636875
Al  1.086663 11.790553  0.909233
Al  6.480581  8.199445 13.623545
Al  4.598073  8.080464 11.656928
Al  1.061904  4.619391  0.932618
Al  6.420516  4.620739 13.664624
Al  2.970857  4.570665 13.432555
Al  1.042443  2.569486 13.482672
Al  4.674350 11.796330  8.292760
Al  2.883579  6.312396  8.082213
Al  1.043384  6.282046 10.032623
Al  6.537199  4.615233  9.938454
Al  4.638765  4.307727  8.095292
Al  1.020328  2.832726  9.932828
Al  6.619769  0.799958  9.887122
Al  6.536055  2.675794 11.854741
Al  4.589108  0.895295  8.028776
Al  2.793784  0.907226  9.971719
Al  0.981378 13.466605  9.938396
Al  6.368587  9.946736  4.531325
Al  8.137062  9.910821  6.470810
Al  4.479251  9.896665  2.681151
Al  2.789163 11.762075  6.362705
Al  1.001450 11.766227  4.403316
Al  8.116320  6.391939  6.460266
Al  2.899722  8.292950  6.352841
Al  6.099830  6.347738  4.750836
Al  1.069411  8.161607  4.445506
Al  6.549124  2.872657  4.517850
Al  1.151741  4.577141  4.642246
Al  6.645263  0.816720  6.353665
Al  4.523002  0.754864  4.536730
Al  4.546463 11.829340  0.879965
Al  8.079456  6.379825  2.692160
Al  4.501995  6.337727  2.624764
Al  1.109118  8.125562  0.888919
Al  4.647442  0.816791  0.811171
Al  4.606952  0.789768 11.945672
Al  4.496136  2.845237  2.658888
Al  1.132031  2.547693  2.730207
Ni  9.965738  0.914151  2.733534
Ni 11.764484 13.571302  2.733374
Ni 11.740549  0.903949  0.947173
Ni 13.597748  0.960794  2.746839
Ni  9.982311  4.613439  2.742795
Ni 11.762289  2.729041  2.768495
Ni 11.790340  4.506620  0.950280
Ni 13.719849  4.403915  2.754133
Ni  9.988016  8.078069  2.739387
Ni 11.818289  6.320550  2.716051
Ni 11.755052  8.141203  0.921809
Ni 13.618149  8.148013  2.708627
Ni  9.968238 11.742222  2.747440
Ni 11.781053  9.948681  2.704036
Ni 11.751296 11.782213  0.931638
Ni 13.596189 11.787328  2.702442
Ni  8.323784  0.885721  8.135707
Ni 11.756221 13.554262  6.306821
Ni 11.738107  0.915533  4.531325
Ni 13.602396  0.894302  6.351159
Ni 10.004033  4.627360  6.345886
Ni 11.739251  2.731451  6.331011
Ni 11.804108  4.514227  4.528857
Ni 13.648608  4.533526  6.272959
Ni 10.006115  8.161356  6.374709
Ni 11.834950  6.348970  6.351070
Ni 11.794052  8.149054  4.528633
Ni 13.657929  8.137728  6.268410
Ni 10.004562 11.634034  6.348251
Ni 11.844293  9.928338  6.342644
Ni 11.767261 11.760772  4.519201
Ni 13.619293 11.769474  6.248613
Ni 10.003597  0.900506  9.965104
Ni 11.792095 13.565333  9.946892
Ni 11.753961  0.908543  8.119445
Ni 13.580670  0.907595  9.916933
Ni  9.987236  4.541712  9.962774
Ni 11.756945  2.726884  9.928499
Ni 11.809907  4.540490  8.138777
Ni 13.614934  4.529310  9.938636
Ni 10.048024  8.151173  9.981265
Ni 11.842391  6.323767  9.989384
Ni 11.867810  8.135894  8.160812
Ni 13.657582  8.056583  9.971853
Ni 10.058689 11.721113  9.950556
Ni 11.890433  9.930641  9.994210
Ni 11.834091 11.733607  8.131606
Ni 13.595645 11.811012  9.961182
Ni  9.990788  0.915087 13.614591
Ni 11.757032 13.570362 13.609750
Ni 11.758880  0.910084 11.766019
Ni 13.571828  0.957891 13.556364
Ni  9.985881  4.521263 13.594174
Ni 11.745902  2.723246 13.585781
Ni 11.778749  4.522953 11.777994
Ni 13.657871  4.425164 13.666548
Ni 10.005058  8.149940 13.558043
Ni 11.797078  6.310601 13.576021
Ni 11.842860  8.134578 11.784904
Ni 13.620869  8.134666 13.648178
Ni  9.982734 11.750120 13.585067
Ni 11.803425  9.952715 13.575547
Ni 11.813541 11.751146 11.789873
Ni 13.605326 11.787766 13.669166
Ni  0.972758 13.613020  2.697498
Ni  0.965455  0.937012  0.898446
Ni  2.876790  0.856569  2.666245
Ni  4.628105 13.531212  2.717192
Ni  2.794460 13.605295  0.887973
Ni  6.321250  0.968188  2.784278
Ni  8.152348 13.548403  2.747524
Ni  6.380625  2.689026  0.954987
Ni  6.450751 13.523004  0.935208
Ni  2.770598  2.748407  0.807883
Ni  2.715536  4.530644  2.736301
Ni  6.368900  4.583731  2.718395
Ni  8.184789  2.776264  2.702233
Ni  8.192711  4.574501  0.948252
Ni  4.598551  4.537335  0.880026
Ni  0.976766  6.343206  2.736412
Ni  2.781711  8.125055  2.699943
Ni  6.361487  6.382223  0.900345
Ni  4.587010  8.167066  0.837252
Ni  6.348158  8.152884  2.715848
Ni  8.178744  4.748672  4.554259
Ni  8.208196  8.146744  0.942306
Ni  0.993263  9.962660  2.656298
Ni  0.935011  9.956481 13.648587
Ni  2.818060 11.788918  2.690515
Ni  6.364225  9.999722  0.918623
Ni  2.858821  9.963023  0.822695
Ni  6.384310 11.713868  2.724830
Ni  8.171223  9.896345  2.725817
Ni  8.202332 11.725085  0.972034
Ni  4.589362 10.011864 13.450132
Ni  0.987428 13.546888  6.313633
Ni  0.985009  0.888973  4.549175
Ni  2.743205  0.869024  6.328698
Ni  4.643657 13.524170  6.350312
Ni  2.767583 13.524950  4.519578
Ni  8.258608 13.461218  6.333514
Ni  8.180326  0.916338  4.478381
Ni  6.420161 13.537062  4.526560
Ni  0.987899  2.687241  6.345930
Ni  2.866077  4.478480  6.389589
Ni  4.700698  2.582986  6.238837
Ni  4.557330  4.467933  4.559229
Ni  2.811986  2.649327  4.561473
Ni  6.389143  4.523936  6.372926
Ni  9.966043  0.912442  6.289065
Ni  8.222462  2.788127  6.354490
Ni  1.063839  6.407056  6.293160
Ni  2.800943 10.013960  4.526199
Ni  2.935173  6.362867  4.608211
Ni  6.311027  8.192918  6.396742
Ni  8.136947  8.063516  4.567140
Ni  4.588102  8.225172  4.518683
Ni  0.950619  9.960873  6.278075
Ni  4.608700 10.045030  6.414796
Ni  4.628266 11.769939  4.504812
Ni  6.435814 11.759044  6.344544
Ni  8.184749 11.665431  4.551709
Ni  0.960720  0.895166  8.180344
Ni  2.791222 13.578962  8.136923
Ni  8.276077 13.498800  9.959803
Ni  6.475282 13.552350  8.142731
Ni  0.998252  4.555016  8.102770
Ni  2.862274  4.500120  9.944988
Ni  2.795548  2.638173  8.131340
Ni  4.751412  2.539193 10.026801
Ni  8.179039  2.723955  9.957404
Ni  8.222468  4.576845  8.132810
Ni  6.471805  2.665268  8.133329
Ni  1.006388  8.113469  8.164920
Ni  2.742992  8.156369  9.950492
Ni  4.601835  6.286734  9.895152
Ni  4.546804  8.191323  8.187406
Ni  6.407418  8.139007  9.931670
Ni  8.213094  6.386281  9.956416
Ni  8.191975  8.144865  8.199396
Ni  6.285708  6.357302  8.145721
Ni  0.922806  9.957625  9.941465
Ni  0.923555 11.757581  8.131608
Ni  2.739536 11.755712  9.964366
Ni  4.557304  9.944405 10.036590
Ni  2.768060 10.013666  8.204154
Ni  6.466173 11.774891  9.982409
Ni  8.205212  9.943866  9.960021
Ni  8.217820 11.710015  8.170844
Ni  6.370776  9.955328  8.241264
Ni  0.959108 13.605565 13.584529
Ni  0.942107  0.919778 11.664636
Ni  2.772063  0.846711 13.569206
Ni  4.653120 13.436463 13.550700
Ni  4.637774 13.725678  9.939654
Ni  2.763627 13.584767 11.757185
Ni  6.475088  0.852321 13.594900
Ni  8.230164 13.582632 13.592259
Ni  8.245937  0.886298 11.793431
Ni  6.481771 13.550176 11.760142
Ni  0.978317  6.320518 13.575628
Ni  2.847749  6.328493  0.826424
Ni  4.690919  2.708766 13.537330
Ni  4.740030  4.517733 11.682598
Ni  2.891764  2.693364 11.733548
Ni  8.168331  0.915970  0.970174
Ni  8.176768  4.539894 11.803500
Ni  8.190480  2.715867 13.641870
Ni  0.931556  8.094214 11.793184
Ni  0.962398  4.454490 11.804711
Ni  2.806921  8.144286 13.502600
Ni  4.644199  6.410543 13.519780
Ni  2.821397  6.312650 11.740561
Ni  8.209991  6.355919 13.576241
Ni  8.210015  8.156230 11.735346
Ni  6.451774  6.407760 11.755818
Ni  0.885864 11.823950 11.814801
Ni  2.745110 11.787025 13.510443
Ni  6.433928  9.942801 11.727244
Ni  8.229869  9.936615 13.560898
Ni  8.260373 11.738545 11.731951
%ENDBLOCK POSITIONS_ABS

