#######################################################
#CASTEP cell file: /home/u2093113/Documents/kART/CASTEP/castep.cell
#Created using the Atomic Simulation Environment (ASE)#
#######################################################

%BLOCK LATTICE_CART
14.464828  0.000000  0.000000
 0.000000 14.464828  0.000000
 0.000000  0.000000 14.464828
%ENDBLOCK LATTICE_CART

%BLOCK POSITIONS_ABS
Al  9.957195 13.563225  0.942663
Al 13.540024 13.667842  0.921570
Al  9.982839  2.735110  0.949954
Al 13.441579  2.645527  0.931279
Al 10.028509  6.341524  0.861865
Al 13.479803  6.334896  0.927219
Al  9.986610  9.951038  0.920734
Al 13.490112  9.953651  0.928964
Al  9.966520 13.539903  4.515765
Al 13.535016 13.652629  4.511542
Al  9.936395  2.769753  4.516119
Al 13.519721  2.649362  4.611381
Al 10.104889  6.368077  4.548330
Al 13.507294  6.331670  4.495163
Al 10.035550  9.920340  4.467227
Al 13.477446  9.958710  4.476424
Al 10.028796 13.514770  8.127955
Al 13.523894 13.561348  8.049655
Al  9.987339  2.751785  8.140293
Al 13.526989  2.734310  8.055156
Al 10.079970  6.371391  8.210973
Al 13.608533  6.332978  8.056398
Al 10.127711  9.924087  8.248464
Al 13.632281  9.935406  8.131277
Al 10.023431 13.548180 11.771732
Al 13.511278 13.596327 11.841698
Al  9.959966  2.733981 11.771083
Al 13.443064  2.725479 11.734223
Al  9.991735  6.346610 11.767883
Al 13.551978  6.284644 11.885885
Al 10.032033  9.943428 11.752228
Al 13.644146  9.949530 11.799882
Al  6.581541 11.748693 13.539201
Al  2.596545  9.968299 11.758027
Al  4.601709 11.846560 11.629648
Al  1.088083 11.790816  0.901305
Al  6.482288  8.200566 13.624436
Al  4.602566  8.081953 11.653291
Al  1.070852  4.629981  0.935297
Al  6.421348  4.626754 13.668219
Al  2.976392  4.582505 13.436535
Al  1.043379  2.579713 13.480654
Al  4.671894 11.801291  8.290588
Al  2.856698  6.316406  8.101446
Al  1.032978  6.285996 10.038886
Al  6.546340  4.616323  9.938272
Al  4.641696  4.299905  8.111053
Al  1.018869  2.841986  9.930535
Al  6.620107  0.802292  9.886901
Al  6.537937  2.680487 11.855250
Al  4.586864  0.897021  8.030000
Al  2.791757  0.915911  9.970545
Al  0.983007 13.469608  9.936304
Al  6.371292  9.969375  4.527726
Al  8.151087  9.940623  6.465469
Al  4.477025  9.912110  2.680827
Al  2.783805 11.766619  6.360623
Al  1.000453 11.766048  4.397285
Al  8.040464  6.390662  6.368616
Al  2.871073  8.309579  6.344507
Al  5.500336  6.344679  5.409157
Al  1.060934  8.170248  4.431284
Al  6.546589  2.855989  4.507919
Al  1.155083  4.580193  4.640042
Al  6.643022  0.813608  6.351846
Al  4.520503  0.753507  4.529780
Al  4.544690 11.835433  0.870358
Al  8.021354  6.388232  2.748913
Al  4.592533  6.345129  2.710664
Al  1.117900  8.122686  0.891916
Al  4.645233  0.814545  0.800150
Al  4.605296  0.796458 11.943676
Al  4.494835  2.834089  2.646156
Al  1.137558  2.557488  2.725969
Ni  9.971770  0.911683  2.725758
Ni 11.772488 13.575272  2.725183
Ni 11.745956  0.907859  0.939987
Ni 13.601744  0.966465  2.740828
Ni  9.978912  4.613796  2.739069
Ni 11.763261  2.732032  2.762451
Ni 11.786594  4.512540  0.947623
Ni 13.718037  4.409224  2.749412
Ni  9.981692  8.083835  2.737839
Ni 11.812170  6.324193  2.713197
Ni 11.750259  8.142299  0.919013
Ni 13.615067  8.149701  2.703370
Ni  9.975805 11.752300  2.737608
Ni 11.781012  9.952158  2.695862
Ni 11.756350 11.784534  0.923069
Ni 13.599651 11.787686  2.694195
Ni  8.326272  0.884763  8.134475
Ni 11.763126 13.560245  6.304112
Ni 11.743464  0.917428  4.526074
Ni 13.606018  0.901731  6.347747
Ni  9.994590  4.627754  6.332874
Ni 11.738035  2.734834  6.326496
Ni 11.799800  4.518020  4.523165
Ni 13.645007  4.535881  6.267215
Ni  9.998843  8.164245  6.363540
Ni 11.827490  6.351012  6.342585
Ni 11.788847  8.150253  4.522605
Ni 13.651498  8.141165  6.262816
Ni 10.013963 11.647214  6.346127
Ni 11.841784  9.931632  6.338242
Ni 11.772273 11.768893  4.512645
Ni 13.617790 11.773263  6.245590
Ni 10.006645  0.904375  9.963010
Ni 11.796720 13.569838  9.944712
Ni 11.757371  0.913834  8.117331
Ni 13.582393  0.916169  9.914174
Ni  9.981836  4.549931  9.953059
Ni 11.755267  2.734587  9.924782
Ni 11.801262  4.547705  8.130547
Ni 13.610462  4.537012  9.934233
Ni 10.043435  8.150032  9.970870
Ni 11.829900  6.326853  9.977904
Ni 11.859969  8.134164  8.153243
Ni 13.651946  8.055949  9.969461
Ni 10.062110 11.724076  9.948612
Ni 11.889881  9.930342  9.991229
Ni 11.837894 11.737635  8.130333
Ni 13.597012 11.811795  9.959281
Ni  9.995454  0.918646 13.607246
Ni 11.761798 13.573409 13.603108
Ni 11.762542  0.916310 11.761899
Ni 13.574523  0.964964 13.551137
Ni  9.984721  4.528079 13.594710
Ni 11.747807  2.730221 13.581757
Ni 11.773937  4.531321 11.774267
Ni 13.658467  4.433099 13.666700
Ni 10.001270  8.151374 13.558020
Ni 11.788677  6.314822 13.580020
Ni 11.837958  8.133716 11.781834
Ni 13.621526  8.134274 13.647066
Ni  9.985874 11.752430 13.576648
Ni 11.804086  9.952378 13.570562
Ni 11.816369 11.751361 11.785711
Ni 13.608434 11.786861 13.663109
Ni  0.971592 13.615823  2.691504
Ni  0.966840  0.943326  0.893232
Ni  2.874038  0.857827  2.659412
Ni  4.625456 13.534104  2.709217
Ni  2.791592 13.608283  0.878913
Ni  6.323231  0.962678  2.774084
Ni  8.155372 13.551914  2.738100
Ni  6.383696  2.680380  0.939762
Ni  6.450775 13.525637  0.925371
Ni  2.772060  2.757036  0.803990
Ni  2.733783  4.545435  2.738404
Ni  6.381108  4.535612  2.696864
Ni  8.191931  2.760438  2.690502
Ni  8.193594  4.578603  0.950546
Ni  4.605835  4.548381  0.890183
Ni  0.977569  6.345948  2.735272
Ni  2.800484  8.119426  2.704160
Ni  6.365812  6.386973  0.921278
Ni  4.596345  8.170271  0.845761
Ni  6.355780  8.212660  2.698985
Ni  8.190643  4.695426  4.538766
Ni  8.206805  8.150298  0.946276
Ni  0.998741  9.962361  2.648123
Ni  0.938386  9.952682 13.646565
Ni  2.815978 11.795612  2.683713
Ni  6.364936 10.016685  0.902445
Ni  2.863549  9.963311  0.819344
Ni  6.384453 11.723239  2.716921
Ni  8.180254  9.920627  2.711777
Ni  8.206439 11.735170  0.960653
Ni  4.590380 10.011091 13.446040
Ni  0.985707 13.551106  6.310539
Ni  0.987590  0.894588  4.543565
Ni  2.741299  0.872949  6.326236
Ni  4.640994 13.529915  6.347812
Ni  2.763583 13.528674  4.515697
Ni  8.261175 13.465326  6.331167
Ni  8.182646  0.911052  4.474234
Ni  6.420174 13.540101  4.520637
Ni  0.993624  2.696466  6.340617
Ni  2.887982  4.504232  6.385703
Ni  4.698566  2.573889  6.236259
Ni  4.577890  4.457065  4.539874
Ni  2.815516  2.655252  4.556830
Ni  6.396852  4.488916  6.368572
Ni  9.971411  0.909345  6.287014
Ni  8.227604  2.773830  6.351266
Ni  1.048079  6.411203  6.286398
Ni  2.801408 10.018656  4.521609
Ni  2.922917  6.375000  4.589514
Ni  6.336922  8.237459  6.388452
Ni  8.148470  8.126699  4.557937
Ni  4.610925  8.232085  4.523359
Ni  0.941084  9.966620  6.271582
Ni  4.602954 10.058177  6.412665
Ni  4.624629 11.779202  4.501596
Ni  6.435658 11.769097  6.341588
Ni  8.191458 11.679275  4.544667
Ni  0.961421  0.902463  8.177800
Ni  2.788443 13.583316  8.135710
Ni  8.278021 13.502387  9.958954
Ni  6.474419 13.556078  8.142905
Ni  0.997032  4.560011  8.096919
Ni  2.860175  4.507107  9.945039
Ni  2.795250  2.647105  8.125059
Ni  4.752134  2.540635 10.029151
Ni  8.181939  2.726724  9.953373
Ni  8.217727  4.583052  8.116046
Ni  6.474554  2.658795  8.135022
Ni  1.000864  8.114854  8.162735
Ni  2.746074  8.156031  9.943201
Ni  4.609519  6.288625  9.892672
Ni  4.546530  8.173030  8.152164
Ni  6.408583  8.140254  9.919964
Ni  8.214600  6.391495  9.951208
Ni  8.190342  8.144027  8.177453
Ni  6.305250  6.355785  8.137342
Ni  0.921406  9.956520  9.938975
Ni  0.921968 11.758530  8.129581
Ni  2.738807 11.754317  9.960598
Ni  4.558771  9.939040 10.021830
Ni  2.766268 10.012490  8.199539
Ni  6.466052 11.777156  9.977984
Ni  8.205698  9.942760  9.950179
Ni  8.222006 11.719256  8.171201
Ni  6.372155  9.964441  8.236144
Ni  0.959632 13.608554 13.578003
Ni  0.942566  0.927632 11.661525
Ni  2.768923  0.852374 13.563274
Ni  4.651017 13.438281 13.540056
Ni  4.634797 13.729285  9.939308
Ni  2.762383 13.587763 11.752169
Ni  6.475837  0.851657 13.586397
Ni  8.233127 13.585179 13.582450
Ni  8.248312  0.890060 11.789051
Ni  6.481253 13.552059 11.754411
Ni  0.990250  6.324047 13.582568
Ni  2.877418  6.334933  0.857111
Ni  4.690373  2.716567 13.536264
Ni  4.742485  4.523354 11.680696
Ni  2.891356  2.702923 11.733903
Ni  8.173211  0.913026  0.958438
Ni  8.177813  4.544098 11.803416
Ni  8.193942  2.719311 13.639041
Ni  0.933528  8.094262 11.791492
Ni  0.961676  4.462566 11.804941
Ni  2.813429  8.142248 13.504987
Ni  4.651726  6.415479 13.525219
Ni  2.825774  6.317224 11.738091
Ni  8.206680  6.359731 13.578916
Ni  8.209401  8.158667 11.731023
Ni  6.454635  6.410974 11.751998
Ni  0.887286 11.822787 11.810420
Ni  2.745223 11.786953 13.502887
Ni  6.433721  9.942759 11.719664
Ni  8.229403  9.939409 13.556888
Ni  8.261581 11.738715 11.724883
%ENDBLOCK POSITIONS_ABS

