#######################################################
#CASTEP cell file: /home/u2093113/Documents/kART/CASTEP/castep.cell
#Created using the Atomic Simulation Environment (ASE)#
#######################################################

%BLOCK LATTICE_CART
14.464828  0.000000  0.000000
 0.000000 14.464828  0.000000
 0.000000  0.000000 14.464828
%ENDBLOCK LATTICE_CART

%BLOCK POSITIONS_ABS
Al  9.963525 13.566585  0.932496
Al 13.544453 13.671296  0.913734
Al  9.986313  2.736350  0.943807
Al 13.443866  2.653470  0.927637
Al 10.008836  6.346505  0.877279
Al 13.478723  6.337879  0.924906
Al  9.988215  9.956412  0.913421
Al 13.492300  9.951821  0.923449
Al  9.972378 13.544627  4.509708
Al 13.540147 13.657398  4.506503
Al  9.942917  2.759879  4.509535
Al 13.520496  2.655229  4.605343
Al 10.088864  6.370733  4.541413
Al 13.504727  6.333409  4.489681
Al 10.044380  9.936058  4.460405
Al 13.471968  9.962410  4.469894
Al 10.034172 13.519215  8.127846
Al 13.526615 13.566575  8.047762
Al  9.986416  2.755173  8.136232
Al 13.525710  2.743169  8.051246
Al 10.051650  6.374791  8.179397
Al 13.602616  6.335532  8.051503
Al 10.130347  9.928162  8.245007
Al 13.628353  9.934928  8.128999
Al 10.027603 13.551153 11.767036
Al 13.514091 13.599547 11.837985
Al  9.961108  2.741017 11.767249
Al 13.441897  2.736046 11.731183
Al  9.988208  6.350917 11.766706
Al 13.547117  6.288403 11.889373
Al 10.031013  9.942438 11.746557
Al 13.644597  9.946983 11.797457
Al  6.581621 11.754061 13.528935
Al  2.598361  9.964517 11.753993
Al  4.600629 11.843012 11.622420
Al  1.089504 11.791079  0.893377
Al  6.483995  8.201686 13.625327
Al  4.607059  8.083442 11.649655
Al  1.079800  4.640571  0.937977
Al  6.422179  4.632770 13.671814
Al  2.981926  4.594345 13.440515
Al  1.044315  2.589940 13.478636
Al  4.669438 11.806251  8.288415
Al  2.829816  6.320416  8.120680
Al  1.022572  6.289945 10.045149
Al  6.555482  4.617414  9.938091
Al  4.644627  4.292083  8.126814
Al  1.017410  2.851246  9.928242
Al  6.620445  0.804626  9.886679
Al  6.539820  2.685181 11.855759
Al  4.584620  0.898748  8.031225
Al  2.789730  0.924596  9.969371
Al  0.984636 13.472611  9.934213
Al  6.373997  9.992014  4.524126
Al  8.165112  9.970424  6.460129
Al  4.474799  9.927554  2.680503
Al  2.778447 11.771163  6.358540
Al  0.999457 11.765869  4.391255
Al  7.964608  6.389385  6.276965
Al  2.842423  8.326208  6.336172
Al  4.900842  6.341620  6.067479
Al  1.052457  8.178889  4.417063
Al  6.544053  2.839320  4.497987
Al  1.158426  4.583245  4.637838
Al  6.640781  0.810496  6.350027
Al  4.518003  0.752150  4.522830
Al  4.542917 11.841525  0.860750
Al  7.963251  6.396638  2.805666
Al  4.683071  6.352531  2.796563
Al  1.126682  8.119810  0.894912
Al  4.643025  0.812298  0.789129
Al  4.603639  0.803147 11.941679
Al  4.493534  2.822941  2.633424
Al  1.143085  2.567283  2.721730
Ni  9.977803  0.909215  2.717982
Ni 11.780492 13.579243  2.716993
Ni 11.751363  0.911769  0.932800
Ni 13.605739  0.972135  2.734816
Ni  9.975513  4.614153  2.735343
Ni 11.764234  2.735024  2.756407
Ni 11.782847  4.518460  0.944965
Ni 13.716226  4.414533  2.744691
Ni  9.975367  8.089602  2.736290
Ni 11.806050  6.327836  2.710343
Ni 11.745466  8.143394  0.916216
Ni 13.611986  8.151390  2.698112
Ni  9.983372 11.762378  2.727777
Ni 11.780970  9.955635  2.687687
Ni 11.761404 11.786855  0.914500
Ni 13.603112 11.788045  2.685948
Ni  8.328761  0.883806  8.133244
Ni 11.770030 13.566228  6.301402
Ni 11.748821  0.919322  4.520823
Ni 13.609639  0.909161  6.344334
Ni  9.985147  4.628148  6.319862
Ni 11.736820  2.738217  6.321980
Ni 11.795492  4.521813  4.517474
Ni 13.641405  4.538237  6.261471
Ni  9.991570  8.167135  6.352371
Ni 11.820030  6.353053  6.334101
Ni 11.783642  8.151452  4.516577
Ni 13.645067  8.144603  6.257222
Ni 10.023363 11.660394  6.344002
Ni 11.839275  9.934927  6.333839
Ni 11.777284 11.777015  4.506088
Ni 13.616287 11.777052  6.242567
Ni 10.009693  0.908244  9.960915
Ni 11.801345 13.574343  9.942533
Ni 11.760782  0.919124  8.115217
Ni 13.584116  0.924743  9.911415
Ni  9.976437  4.558149  9.943345
Ni 11.753589  2.742290  9.921065
Ni 11.792617  4.554919  8.122317
Ni 13.605991  4.544714  9.929829
Ni 10.038846  8.148891  9.960475
Ni 11.817409  6.329939  9.966423
Ni 11.852128  8.132435  8.145674
Ni 13.646309  8.055315  9.967070
Ni 10.065531 11.727038  9.946668
Ni 11.889329  9.930044  9.988247
Ni 11.841696 11.741662  8.129060
Ni 13.598378 11.812577  9.957380
Ni 10.000120  0.922205 13.599900
Ni 11.766564 13.576455 13.596467
Ni 11.766204  0.922535 11.757778
Ni 13.577219  0.972038 13.545910
Ni  9.983561  4.534895 13.595245
Ni 11.749712  2.737197 13.577732
Ni 11.769125  4.539689 11.770540
Ni 13.659063  4.441034 13.666853
Ni  9.997481  8.152808 13.557996
Ni 11.780277  6.319043 13.584019
Ni 11.833055  8.132854 11.778763
Ni 13.622184  8.133882 13.645954
Ni  9.989014 11.754741 13.568228
Ni 11.804747  9.952041 13.565578
Ni 11.819196 11.751577 11.781548
Ni 13.611542 11.785956 13.657053
Ni  0.970427 13.618627  2.685511
Ni  0.968226  0.949641  0.888018
Ni  2.871287  0.859085  2.652579
Ni  4.622807 13.536995  2.701242
Ni  2.788724 13.611272  0.869854
Ni  6.325212  0.957169  2.763891
Ni  8.158397 13.555425  2.728676
Ni  6.386767  2.671733  0.924536
Ni  6.450799 13.528271  0.915535
Ni  2.773521  2.765665  0.800098
Ni  2.752030  4.560227  2.740506
Ni  6.393315  4.487494  2.675334
Ni  8.199073  2.744612  2.678771
Ni  8.194477  4.582705  0.952840
Ni  4.613119  4.559428  0.900340
Ni  0.978373  6.348689  2.734131
Ni  2.819257  8.113798  2.708378
Ni  6.370138  6.391723  0.942211
Ni  4.605680  8.173476  0.854270
Ni  6.363402  8.272437  2.682122
Ni  8.202542  4.642179  4.523274
Ni  8.205414  8.153851  0.950245
Ni  1.004220  9.962061  2.639948
Ni  0.941761  9.948883 13.644542
Ni  2.813896 11.802306  2.676912
Ni  6.365647 10.033648  0.886268
Ni  2.868277  9.963599  0.815993
Ni  6.384596 11.732611  2.709012
Ni  8.189286  9.944910  2.697738
Ni  8.210546 11.745255  0.949273
Ni  4.591398 10.010318 13.441949
Ni  0.983985 13.555323  6.307445
Ni  0.990170  0.900203  4.537955
Ni  2.739393  0.876873  6.323774
Ni  4.638331 13.535661  6.345313
Ni  2.759583 13.532398  4.511816
Ni  8.263742 13.469434  6.328821
Ni  8.184966  0.905767  4.470087
Ni  6.420187 13.543141  4.514714
Ni  0.999349  2.705691  6.335305
Ni  2.909887  4.529983  6.381817
Ni  4.696434  2.564792  6.233681
Ni  4.598450  4.446196  4.520519
Ni  2.819046  2.661178  4.552187
Ni  6.404561  4.453895  6.364218
Ni  9.976778  0.906249  6.284963
Ni  8.232745  2.759534  6.348042
Ni  1.032318  6.415350  6.279635
Ni  2.801873 10.023353  4.517020
Ni  2.910661  6.387133  4.570817
Ni  6.362816  8.282000  6.380162
Ni  8.159993  8.189882  4.548734
Ni  4.633748  8.238997  4.528034
Ni  0.931550  9.972367  6.265090
Ni  4.597208 10.071325  6.410534
Ni  4.620991 11.788466  4.498380
Ni  6.435502 11.779151  6.338632
Ni  8.198167 11.693118  4.537625
Ni  0.962122  0.909759  8.175257
Ni  2.785664 13.587670  8.134497
Ni  8.279965 13.505975  9.958106
Ni  6.473557 13.559806  8.143079
Ni  0.995813  4.565006  8.091069
Ni  2.858076  4.514094  9.945090
Ni  2.794952  2.656038  8.118777
Ni  4.752855  2.542078 10.031501
Ni  8.184839  2.729494  9.949341
Ni  8.212986  4.589259  8.099282
Ni  6.477304  2.652322  8.136714
Ni  0.995340  8.116239  8.160551
Ni  2.749157  8.155693  9.935909
Ni  4.617202  6.290517  9.890193
Ni  4.546255  8.154738  8.116922
Ni  6.409748  8.141501  9.908258
Ni  8.216107  6.396708  9.946001
Ni  8.188708  8.143189  8.155511
Ni  6.324792  6.354269  8.128963
Ni  0.920006  9.955414  9.936485
Ni  0.920381 11.759479  8.127554
Ni  2.738078 11.752922  9.956830
Ni  4.560237  9.933675 10.007069
Ni  2.764477 10.011314  8.194923
Ni  6.465931 11.779422  9.973560
Ni  8.206183  9.941654  9.940337
Ni  8.226192 11.728496  8.171558
Ni  6.373534  9.973553  8.231024
Ni  0.960156 13.611542 13.571477
Ni  0.943026  0.935486 11.658414
Ni  2.765784  0.858037 13.557343
Ni  4.648914 13.440099 13.529413
Ni  4.631820 13.732893  9.938963
Ni  2.761139 13.590759 11.747153
Ni  6.476587  0.850992 13.577894
Ni  8.236091 13.587725 13.572641
Ni  8.250686  0.893823 11.784672
Ni  6.480734 13.553942 11.748680
Ni  1.002182  6.327576 13.589507
Ni  2.907087  6.341373  0.887798
Ni  4.689827  2.724367 13.535198
Ni  4.744940  4.528975 11.678793
Ni  2.890948  2.712482 11.734257
Ni  8.178091  0.910081  0.946702
Ni  8.178857  4.548302 11.803332
Ni  8.197403  2.722756 13.636213
Ni  0.935500  8.094310 11.789799
Ni  0.960953  4.470642 11.805172
Ni  2.819938  8.140210 13.507373
Ni  4.659252  6.420415 13.530657
Ni  2.830151  6.321798 11.735622
Ni  8.203369  6.363542 13.581591
Ni  8.208787  8.161105 11.726699
Ni  6.457495  6.414188 11.748177
Ni  0.888708 11.821625 11.806040
Ni  2.745337 11.786881 13.495332
Ni  6.433514  9.942718 11.712084
Ni  8.228937  9.942202 13.552879
Ni  8.262789 11.738885 11.717816
%ENDBLOCK POSITIONS_ABS

