%block lattice_abc 
  14.46482773 14.46482773 14.46482773 #lattice params 
 90.0  90.0  90.0 
     %endblock lattice_abc 
     fix_all_cell : true 
     %BLOCK POSITIONS_ABS 
Al  9.963525 13.566585  0.932496
 Al 13.544453 13.671296  0.913734
 Al  9.986313  2.736350  0.943807
 Al 13.443866  2.653470  0.927637
 Al 10.008836  6.346505  0.877279
 Al 13.478723  6.337879  0.924906
 Al  9.988215  9.956412  0.913421
 Al 13.492300  9.951821  0.923449
 Al  9.972378 13.544627  4.509708
 Al 13.540147 13.657398  4.506503
 Al  9.942917  2.759879  4.509535
 Al 13.520496  2.655229  4.605343
 Al 10.088864  6.370733  4.541413
 Al 13.504727  6.333409  4.489681
 Al 10.044380  9.936058  4.460405
 Al 13.471968  9.962410  4.469894
 Al 10.034172 13.519215  8.127846
 Al 13.526615 13.566575  8.047762
 Al  9.986416  2.755173  8.136232
 Al 13.525710  2.743169  8.051246
 Al 10.051650  6.374791  8.179397
 Al 13.602616  6.335532  8.051503
 Al 10.130347  9.928162  8.245007
 Al 13.628353  9.934928  8.128999
 Al 10.027603 13.551153 11.767036
 Al 13.514091 13.599547 11.837985
 Al  9.961108  2.741017 11.767249
 Al 13.441897  2.736046 11.731183
 Al  9.988208  6.350917 11.766706
 Al 13.547117  6.288403 11.889373
 Al 10.031013  9.942438 11.746557
 Al 13.644597  9.946983 11.797457
 Al  6.581621 11.754061 13.528935
 Al  2.598361  9.964517 11.753993
 Al  4.600629 11.843012 11.622420
 Al  1.089504 11.791079  0.893377
 Al  6.483995  8.201686 13.625327
 Al  4.607059  8.083442 11.649655
 Al  1.079800  4.640571  0.937977
 Al  6.422179  4.632770 13.671814
 Al  2.981926  4.594345 13.440515
 Al  1.044315  2.589940 13.478636
 Al  4.669438 11.806251  8.288415
 Al  2.829816  6.320416  8.120680
 Al  1.022572  6.289945 10.045149
 Al  6.555482  4.617414  9.938091
 Al  4.644627  4.292083  8.126814
 Al  1.017410  2.851246  9.928242
 Al  6.620445  0.804626  9.886679
 Al  6.539820  2.685181 11.855759
 Al  4.584620  0.898748  8.031225
 Al  2.789730  0.924596  9.969371
 Al  0.984636 13.472611  9.934213
 Al  6.373997  9.992014  4.524126
 Al  8.165112  9.970424  6.460129
 Al  4.474799  9.927554  2.680503
 Al  2.778447 11.771163  6.358540
 Al  0.999457 11.765869  4.391255
 Al  7.964608  6.389385  6.276965
 Al  2.842423  8.326208  6.336172
 Al  4.900842  6.341620  6.067479
 Al  1.052457  8.178889  4.417063
 Al  6.544053  2.839320  4.497987
 Al  1.158426  4.583245  4.637838
 Al  6.640781  0.810496  6.350027
 Al  4.518003  0.752150  4.522830
 Al  4.542917 11.841525  0.860750
 Al  7.963251  6.396638  2.805666
 Al  4.683071  6.352531  2.796563
 Al  1.126682  8.119810  0.894912
 Al  4.643025  0.812298  0.789129
 Al  4.603639  0.803147 11.941679
 Al  4.493534  2.822941  2.633424
 Al  1.143085  2.567283  2.721730
 Ni  9.977803  0.909215  2.717982
 Ni 11.780492 13.579243  2.716993
 Ni 11.751363  0.911769  0.932800
 Ni 13.605739  0.972135  2.734816
 Ni  9.975513  4.614153  2.735343
 Ni 11.764234  2.735024  2.756407
 Ni 11.782847  4.518460  0.944965
 Ni 13.716226  4.414533  2.744691
 Ni  9.975367  8.089602  2.736290
 Ni 11.806050  6.327836  2.710343
 Ni 11.745466  8.143394  0.916216
 Ni 13.611986  8.151390  2.698112
 Ni  9.983372 11.762378  2.727777
 Ni 11.780970  9.955635  2.687687
 Ni 11.761404 11.786855  0.914500
 Ni 13.603112 11.788045  2.685948
 Ni  8.328761  0.883806  8.133244
 Ni 11.770030 13.566228  6.301402
 Ni 11.748821  0.919322  4.520823
 Ni 13.609639  0.909161  6.344334
 Ni  9.985147  4.628148  6.319862
 Ni 11.736820  2.738217  6.321980
 Ni 11.795492  4.521813  4.517474
 Ni 13.641405  4.538237  6.261471
 Ni  9.991570  8.167135  6.352371
 Ni 11.820030  6.353053  6.334101
 Ni 11.783642  8.151452  4.516577
 Ni 13.645067  8.144603  6.257222
 Ni 10.023363 11.660394  6.344002
 Ni 11.839275  9.934927  6.333839
 Ni 11.777284 11.777015  4.506088
 Ni 13.616287 11.777052  6.242567
 Ni 10.009693  0.908244  9.960915
 Ni 11.801345 13.574343  9.942533
 Ni 11.760782  0.919124  8.115217
 Ni 13.584116  0.924743  9.911415
 Ni  9.976437  4.558149  9.943345
 Ni 11.753589  2.742290  9.921065
 Ni 11.792617  4.554919  8.122317
 Ni 13.605991  4.544714  9.929829
 Ni 10.038846  8.148891  9.960475
 Ni 11.817409  6.329939  9.966423
 Ni 11.852128  8.132435  8.145674
 Ni 13.646309  8.055315  9.967070
 Ni 10.065531 11.727038  9.946668
 Ni 11.889329  9.930044  9.988247
 Ni 11.841696 11.741662  8.129060
 Ni 13.598378 11.812577  9.957380
 Ni 10.000120  0.922205 13.599900
 Ni 11.766564 13.576455 13.596467
 Ni 11.766204  0.922535 11.757778
 Ni 13.577219  0.972038 13.545910
 Ni  9.983561  4.534895 13.595245
 Ni 11.749712  2.737197 13.577732
 Ni 11.769125  4.539689 11.770540
 Ni 13.659063  4.441034 13.666853
 Ni  9.997481  8.152808 13.557996
 Ni 11.780277  6.319043 13.584019
 Ni 11.833055  8.132854 11.778763
 Ni 13.622184  8.133882 13.645954
 Ni  9.989014 11.754741 13.568228
 Ni 11.804747  9.952041 13.565578
 Ni 11.819196 11.751577 11.781548
 Ni 13.611542 11.785956 13.657053
 Ni  0.970427 13.618627  2.685511
 Ni  0.968226  0.949641  0.888018
 Ni  2.871287  0.859085  2.652579
 Ni  4.622807 13.536995  2.701242
 Ni  2.788724 13.611272  0.869854
 Ni  6.325212  0.957169  2.763891
 Ni  8.158397 13.555425  2.728676
 Ni  6.386767  2.671733  0.924536
 Ni  6.450799 13.528271  0.915535
 Ni  2.773521  2.765665  0.800098
 Ni  2.752030  4.560227  2.740506
 Ni  6.393315  4.487494  2.675334
 Ni  8.199073  2.744612  2.678771
 Ni  8.194477  4.582705  0.952840
 Ni  4.613119  4.559428  0.900340
 Ni  0.978373  6.348689  2.734131
 Ni  2.819257  8.113798  2.708378
 Ni  6.370138  6.391723  0.942211
 Ni  4.605680  8.173476  0.854270
 Ni  6.363402  8.272437  2.682122
 Ni  8.202542  4.642179  4.523274
 Ni  8.205414  8.153851  0.950245
 Ni  1.004220  9.962061  2.639948
 Ni  0.941761  9.948883 13.644542
 Ni  2.813896 11.802306  2.676912
 Ni  6.365647 10.033648  0.886268
 Ni  2.868277  9.963599  0.815993
 Ni  6.384596 11.732611  2.709012
 Ni  8.189286  9.944910  2.697738
 Ni  8.210546 11.745255  0.949273
 Ni  4.591398 10.010318 13.441949
 Ni  0.983985 13.555323  6.307445
 Ni  0.990170  0.900203  4.537955
 Ni  2.739393  0.876873  6.323774
 Ni  4.638331 13.535661  6.345313
 Ni  2.759583 13.532398  4.511816
 Ni  8.263742 13.469434  6.328821
 Ni  8.184966  0.905767  4.470087
 Ni  6.420187 13.543141  4.514714
 Ni  0.999349  2.705691  6.335305
 Ni  2.909887  4.529983  6.381817
 Ni  4.696434  2.564792  6.233681
 Ni  4.598450  4.446196  4.520519
 Ni  2.819046  2.661178  4.552187
 Ni  6.404561  4.453895  6.364218
 Ni  9.976778  0.906249  6.284963
 Ni  8.232745  2.759534  6.348042
 Ni  1.032318  6.415350  6.279635
 Ni  2.801873 10.023353  4.517020
 Ni  2.910661  6.387133  4.570817
 Ni  6.362816  8.282000  6.380162
 Ni  8.159993  8.189882  4.548734
 Ni  4.633748  8.238997  4.528034
 Ni  0.931550  9.972367  6.265090
 Ni  4.597208 10.071325  6.410534
 Ni  4.620991 11.788466  4.498380
 Ni  6.435502 11.779151  6.338632
 Ni  8.198167 11.693118  4.537625
 Ni  0.962122  0.909759  8.175257
 Ni  2.785664 13.587670  8.134497
 Ni  8.279965 13.505975  9.958106
 Ni  6.473557 13.559806  8.143079
 Ni  0.995813  4.565006  8.091069
 Ni  2.858076  4.514094  9.945090
 Ni  2.794952  2.656038  8.118777
 Ni  4.752855  2.542078 10.031501
 Ni  8.184839  2.729494  9.949341
 Ni  8.212986  4.589259  8.099282
 Ni  6.477304  2.652322  8.136714
 Ni  0.995340  8.116239  8.160551
 Ni  2.749157  8.155693  9.935909
 Ni  4.617202  6.290517  9.890193
 Ni  4.546255  8.154738  8.116922
 Ni  6.409748  8.141501  9.908258
 Ni  8.216107  6.396708  9.946001
 Ni  8.188708  8.143189  8.155511
 Ni  6.324792  6.354269  8.128963
 Ni  0.920006  9.955414  9.936485
 Ni  0.920381 11.759479  8.127554
 Ni  2.738078 11.752922  9.956830
 Ni  4.560237  9.933675 10.007069
 Ni  2.764477 10.011314  8.194923
 Ni  6.465931 11.779422  9.973560
 Ni  8.206183  9.941654  9.940337
 Ni  8.226192 11.728496  8.171558
 Ni  6.373534  9.973553  8.231024
 Ni  0.960156 13.611542 13.571477
 Ni  0.943026  0.935486 11.658414
 Ni  2.765784  0.858037 13.557343
 Ni  4.648914 13.440099 13.529413
 Ni  4.631820 13.732893  9.938963
 Ni  2.761139 13.590759 11.747153
 Ni  6.476587  0.850992 13.577894
 Ni  8.236091 13.587725 13.572641
 Ni  8.250686  0.893823 11.784672
 Ni  6.480734 13.553942 11.748680
 Ni  1.002182  6.327576 13.589507
 Ni  2.907087  6.341373  0.887798
 Ni  4.689827  2.724367 13.535198
 Ni  4.744940  4.528975 11.678793
 Ni  2.890948  2.712482 11.734257
 Ni  8.178091  0.910081  0.946702
 Ni  8.178857  4.548302 11.803332
 Ni  8.197403  2.722756 13.636213
 Ni  0.935500  8.094310 11.789799
 Ni  0.960953  4.470642 11.805172
 Ni  2.819938  8.140210 13.507373
 Ni  4.659252  6.420415 13.530657
 Ni  2.830151  6.321798 11.735622
 Ni  8.203369  6.363542 13.581591
 Ni  8.208787  8.161105 11.726699
 Ni  6.457495  6.414188 11.748177
 Ni  0.888708 11.821625 11.806040
 Ni  2.745337 11.786881 13.495332
 Ni  6.433514  9.942718 11.712084
 Ni  8.228937  9.942202 13.552879
 Ni  8.262789 11.738885 11.717816
 %ENDBLOCK POSITIONS_ABS
 
%block positions_abs_product 
     ang 
Al  9.950866 13.559866  0.952831
 Al 13.535595 13.664388  0.929406
 Al  9.979365  2.733871  0.956100
 Al 13.439291  2.637584  0.934921
 Al 10.048183  6.336543  0.846451
 Al 13.480884  6.331913  0.929532
 Al  9.985005  9.945663  0.928047
 Al 13.487925  9.955482  0.934478
 Al  9.960663 13.535180  4.521822
 Al 13.529885 13.647861  4.516580
 Al  9.929874  2.779626  4.522703
 Al 13.518945  2.643496  4.617419
 Al 10.120914  6.365421  4.555247
 Al 13.509860  6.329931  4.500644
 Al 10.026720  9.904623  4.474050
 Al 13.482925  9.955011  4.482954
 Al 10.023419 13.510325  8.128064
 Al 13.521173 13.556122  8.051548
 Al  9.988262  2.748398  8.144353
 Al 13.528268  2.725450  8.059066
 Al 10.108290  6.367991  8.242550
 Al 13.614450  6.330425  8.061294
 Al 10.125075  9.920012  8.251920
 Al 13.636209  9.935884  8.133555
 Al 10.019260 13.545208 11.776429
 Al 13.508465 13.593106 11.845411
 Al  9.958824  2.726944 11.774918
 Al 13.444232  2.714912 11.737263
 Al  9.995261  6.342303 11.769060
 Al 13.556839  6.280886 11.882396
 Al 10.033053  9.944418 11.757899
 Al 13.643694  9.952077 11.802307
 Al  6.581461 11.743326 13.549467
 Al  2.594728  9.972081 11.762061
 Al  4.602788 11.850109 11.636875
 Al  1.086663 11.790553  0.909233
 Al  6.480581  8.199445 13.623545
 Al  4.598073  8.080464 11.656928
 Al  1.061904  4.619391  0.932618
 Al  6.420516  4.620739 13.664624
 Al  2.970857  4.570665 13.432555
 Al  1.042443  2.569486 13.482672
 Al  4.674350 11.796330  8.292760
 Al  2.883579  6.312396  8.082213
 Al  1.043384  6.282046 10.032623
 Al  6.537199  4.615233  9.938454
 Al  4.638765  4.307727  8.095292
 Al  1.020328  2.832726  9.932828
 Al  6.619769  0.799958  9.887122
 Al  6.536055  2.675794 11.854741
 Al  4.589108  0.895295  8.028776
 Al  2.793784  0.907226  9.971719
 Al  0.981378 13.466605  9.938396
 Al  6.368587  9.946736  4.531325
 Al  8.137062  9.910821  6.470810
 Al  4.479251  9.896665  2.681151
 Al  2.789163 11.762075  6.362705
 Al  1.001450 11.766227  4.403316
 Al  8.116320  6.391939  6.460266
 Al  2.899722  8.292950  6.352841
 Al  6.099830  6.347738  4.750836
 Al  1.069411  8.161607  4.445506
 Al  6.549124  2.872657  4.517850
 Al  1.151741  4.577141  4.642246
 Al  6.645263  0.816720  6.353665
 Al  4.523002  0.754864  4.536730
 Al  4.546463 11.829340  0.879965
 Al  8.079456  6.379825  2.692160
 Al  4.501995  6.337727  2.624764
 Al  1.109118  8.125562  0.888919
 Al  4.647442  0.816791  0.811171
 Al  4.606952  0.789768 11.945672
 Al  4.496136  2.845237  2.658888
 Al  1.132031  2.547693  2.730207
 Ni  9.965738  0.914151  2.733534
 Ni 11.764484 13.571302  2.733374
 Ni 11.740549  0.903949  0.947173
 Ni 13.597748  0.960794  2.746839
 Ni  9.982311  4.613439  2.742795
 Ni 11.762289  2.729041  2.768495
 Ni 11.790340  4.506620  0.950280
 Ni 13.719849  4.403915  2.754133
 Ni  9.988016  8.078069  2.739387
 Ni 11.818289  6.320550  2.716051
 Ni 11.755052  8.141203  0.921809
 Ni 13.618149  8.148013  2.708627
 Ni  9.968238 11.742222  2.747440
 Ni 11.781053  9.948681  2.704036
 Ni 11.751296 11.782213  0.931638
 Ni 13.596189 11.787328  2.702442
 Ni  8.323784  0.885721  8.135707
 Ni 11.756221 13.554262  6.306821
 Ni 11.738107  0.915533  4.531325
 Ni 13.602396  0.894302  6.351159
 Ni 10.004033  4.627360  6.345886
 Ni 11.739251  2.731451  6.331011
 Ni 11.804108  4.514227  4.528857
 Ni 13.648608  4.533526  6.272959
 Ni 10.006115  8.161356  6.374709
 Ni 11.834950  6.348970  6.351070
 Ni 11.794052  8.149054  4.528633
 Ni 13.657929  8.137728  6.268410
 Ni 10.004562 11.634034  6.348251
 Ni 11.844293  9.928338  6.342644
 Ni 11.767261 11.760772  4.519201
 Ni 13.619293 11.769474  6.248613
 Ni 10.003597  0.900506  9.965104
 Ni 11.792095 13.565333  9.946892
 Ni 11.753961  0.908543  8.119445
 Ni 13.580670  0.907595  9.916933
 Ni  9.987236  4.541712  9.962774
 Ni 11.756945  2.726884  9.928499
 Ni 11.809907  4.540490  8.138777
 Ni 13.614934  4.529310  9.938636
 Ni 10.048024  8.151173  9.981265
 Ni 11.842391  6.323767  9.989384
 Ni 11.867810  8.135894  8.160812
 Ni 13.657582  8.056583  9.971853
 Ni 10.058689 11.721113  9.950556
 Ni 11.890433  9.930641  9.994210
 Ni 11.834091 11.733607  8.131606
 Ni 13.595645 11.811012  9.961182
 Ni  9.990788  0.915087 13.614591
 Ni 11.757032 13.570362 13.609750
 Ni 11.758880  0.910084 11.766019
 Ni 13.571828  0.957891 13.556364
 Ni  9.985881  4.521263 13.594174
 Ni 11.745902  2.723246 13.585781
 Ni 11.778749  4.522953 11.777994
 Ni 13.657871  4.425164 13.666548
 Ni 10.005058  8.149940 13.558043
 Ni 11.797078  6.310601 13.576021
 Ni 11.842860  8.134578 11.784904
 Ni 13.620869  8.134666 13.648178
 Ni  9.982734 11.750120 13.585067
 Ni 11.803425  9.952715 13.575547
 Ni 11.813541 11.751146 11.789873
 Ni 13.605326 11.787766 13.669166
 Ni  0.972758 13.613020  2.697498
 Ni  0.965455  0.937012  0.898446
 Ni  2.876790  0.856569  2.666245
 Ni  4.628105 13.531212  2.717192
 Ni  2.794460 13.605295  0.887973
 Ni  6.321250  0.968188  2.784278
 Ni  8.152348 13.548403  2.747524
 Ni  6.380625  2.689026  0.954987
 Ni  6.450751 13.523004  0.935208
 Ni  2.770598  2.748407  0.807883
 Ni  2.715536  4.530644  2.736301
 Ni  6.368900  4.583731  2.718395
 Ni  8.184789  2.776264  2.702233
 Ni  8.192711  4.574501  0.948252
 Ni  4.598551  4.537335  0.880026
 Ni  0.976766  6.343206  2.736412
 Ni  2.781711  8.125055  2.699943
 Ni  6.361487  6.382223  0.900345
 Ni  4.587010  8.167066  0.837252
 Ni  6.348158  8.152884  2.715848
 Ni  8.178744  4.748672  4.554259
 Ni  8.208196  8.146744  0.942306
 Ni  0.993263  9.962660  2.656298
 Ni  0.935011  9.956481 13.648587
 Ni  2.818060 11.788918  2.690515
 Ni  6.364225  9.999722  0.918623
 Ni  2.858821  9.963023  0.822695
 Ni  6.384310 11.713868  2.724830
 Ni  8.171223  9.896345  2.725817
 Ni  8.202332 11.725085  0.972034
 Ni  4.589362 10.011864 13.450132
 Ni  0.987428 13.546888  6.313633
 Ni  0.985009  0.888973  4.549175
 Ni  2.743205  0.869024  6.328698
 Ni  4.643657 13.524170  6.350312
 Ni  2.767583 13.524950  4.519578
 Ni  8.258608 13.461218  6.333514
 Ni  8.180326  0.916338  4.478381
 Ni  6.420161 13.537062  4.526560
 Ni  0.987899  2.687241  6.345930
 Ni  2.866077  4.478480  6.389589
 Ni  4.700698  2.582986  6.238837
 Ni  4.557330  4.467933  4.559229
 Ni  2.811986  2.649327  4.561473
 Ni  6.389143  4.523936  6.372926
 Ni  9.966043  0.912442  6.289065
 Ni  8.222462  2.788127  6.354490
 Ni  1.063839  6.407056  6.293160
 Ni  2.800943 10.013960  4.526199
 Ni  2.935173  6.362867  4.608211
 Ni  6.311027  8.192918  6.396742
 Ni  8.136947  8.063516  4.567140
 Ni  4.588102  8.225172  4.518683
 Ni  0.950619  9.960873  6.278075
 Ni  4.608700 10.045030  6.414796
 Ni  4.628266 11.769939  4.504812
 Ni  6.435814 11.759044  6.344544
 Ni  8.184749 11.665431  4.551709
 Ni  0.960720  0.895166  8.180344
 Ni  2.791222 13.578962  8.136923
 Ni  8.276077 13.498800  9.959803
 Ni  6.475282 13.552350  8.142731
 Ni  0.998252  4.555016  8.102770
 Ni  2.862274  4.500120  9.944988
 Ni  2.795548  2.638173  8.131340
 Ni  4.751412  2.539193 10.026801
 Ni  8.179039  2.723955  9.957404
 Ni  8.222468  4.576845  8.132810
 Ni  6.471805  2.665268  8.133329
 Ni  1.006388  8.113469  8.164920
 Ni  2.742992  8.156369  9.950492
 Ni  4.601835  6.286734  9.895152
 Ni  4.546804  8.191323  8.187406
 Ni  6.407418  8.139007  9.931670
 Ni  8.213094  6.386281  9.956416
 Ni  8.191975  8.144865  8.199396
 Ni  6.285708  6.357302  8.145721
 Ni  0.922806  9.957625  9.941465
 Ni  0.923555 11.757581  8.131608
 Ni  2.739536 11.755712  9.964366
 Ni  4.557304  9.944405 10.036590
 Ni  2.768060 10.013666  8.204154
 Ni  6.466173 11.774891  9.982409
 Ni  8.205212  9.943866  9.960021
 Ni  8.217820 11.710015  8.170844
 Ni  6.370776  9.955328  8.241264
 Ni  0.959108 13.605565 13.584529
 Ni  0.942107  0.919778 11.664636
 Ni  2.772063  0.846711 13.569206
 Ni  4.653120 13.436463 13.550700
 Ni  4.637774 13.725678  9.939654
 Ni  2.763627 13.584767 11.757185
 Ni  6.475088  0.852321 13.594900
 Ni  8.230164 13.582632 13.592259
 Ni  8.245937  0.886298 11.793431
 Ni  6.481771 13.550176 11.760142
 Ni  0.978317  6.320518 13.575628
 Ni  2.847749  6.328493  0.826424
 Ni  4.690919  2.708766 13.537330
 Ni  4.740030  4.517733 11.682598
 Ni  2.891764  2.693364 11.733548
 Ni  8.168331  0.915970  0.970174
 Ni  8.176768  4.539894 11.803500
 Ni  8.190480  2.715867 13.641870
 Ni  0.931556  8.094214 11.793184
 Ni  0.962398  4.454490 11.804711
 Ni  2.806921  8.144286 13.502600
 Ni  4.644199  6.410543 13.519780
 Ni  2.821397  6.312650 11.740561
 Ni  8.209991  6.355919 13.576241
 Ni  8.210015  8.156230 11.735346
 Ni  6.451774  6.407760 11.755818
 Ni  0.885864 11.823950 11.814801
 Ni  2.745110 11.787025 13.510443
 Ni  6.433928  9.942801 11.727244
 Ni  8.229869  9.936615 13.560898
 Ni  8.260373 11.738545 11.731951
%endblock positions_abs_product 
%block positions_abs_intermediate 
     ang 
Al  9.957195 13.563225  0.942663
 Al 13.540024 13.667842  0.921570
 Al  9.982839  2.735110  0.949954
 Al 13.441579  2.645527  0.931279
 Al 10.028509  6.341524  0.861865
 Al 13.479803  6.334896  0.927219
 Al  9.986610  9.951038  0.920734
 Al 13.490112  9.953651  0.928964
 Al  9.966520 13.539903  4.515765
 Al 13.535016 13.652629  4.511542
 Al  9.936395  2.769753  4.516119
 Al 13.519721  2.649362  4.611381
 Al 10.104889  6.368077  4.548330
 Al 13.507294  6.331670  4.495163
 Al 10.035550  9.920340  4.467227
 Al 13.477446  9.958710  4.476424
 Al 10.028796 13.514770  8.127955
 Al 13.523894 13.561348  8.049655
 Al  9.987339  2.751785  8.140293
 Al 13.526989  2.734310  8.055156
 Al 10.079970  6.371391  8.210973
 Al 13.608533  6.332978  8.056398
 Al 10.127711  9.924087  8.248464
 Al 13.632281  9.935406  8.131277
 Al 10.023431 13.548180 11.771732
 Al 13.511278 13.596327 11.841698
 Al  9.959966  2.733981 11.771083
 Al 13.443064  2.725479 11.734223
 Al  9.991735  6.346610 11.767883
 Al 13.551978  6.284644 11.885885
 Al 10.032033  9.943428 11.752228
 Al 13.644146  9.949530 11.799882
 Al  6.581541 11.748693 13.539201
 Al  2.596545  9.968299 11.758027
 Al  4.601709 11.846560 11.629648
 Al  1.088083 11.790816  0.901305
 Al  6.482288  8.200566 13.624436
 Al  4.602566  8.081953 11.653291
 Al  1.070852  4.629981  0.935297
 Al  6.421348  4.626754 13.668219
 Al  2.976392  4.582505 13.436535
 Al  1.043379  2.579713 13.480654
 Al  4.671894 11.801291  8.290588
 Al  2.856698  6.316406  8.101446
 Al  1.032978  6.285996 10.038886
 Al  6.546340  4.616323  9.938272
 Al  4.641696  4.299905  8.111053
 Al  1.018869  2.841986  9.930535
 Al  6.620107  0.802292  9.886901
 Al  6.537937  2.680487 11.855250
 Al  4.586864  0.897021  8.030000
 Al  2.791757  0.915911  9.970545
 Al  0.983007 13.469608  9.936304
 Al  6.371292  9.969375  4.527726
 Al  8.151087  9.940623  6.465469
 Al  4.477025  9.912110  2.680827
 Al  2.783805 11.766619  6.360623
 Al  1.000453 11.766048  4.397285
 Al  8.040464  6.390662  6.368616
 Al  2.871073  8.309579  6.344507
 Al  5.500336  6.344679  5.409157
 Al  1.060934  8.170248  4.431284
 Al  6.546589  2.855989  4.507919
 Al  1.155083  4.580193  4.640042
 Al  6.643022  0.813608  6.351846
 Al  4.520503  0.753507  4.529780
 Al  4.544690 11.835433  0.870358
 Al  8.021354  6.388232  2.748913
 Al  4.592533  6.345129  2.710664
 Al  1.117900  8.122686  0.891916
 Al  4.645233  0.814545  0.800150
 Al  4.605296  0.796458 11.943676
 Al  4.494835  2.834089  2.646156
 Al  1.137558  2.557488  2.725969
 Ni  9.971770  0.911683  2.725758
 Ni 11.772488 13.575272  2.725183
 Ni 11.745956  0.907859  0.939987
 Ni 13.601744  0.966465  2.740828
 Ni  9.978912  4.613796  2.739069
 Ni 11.763261  2.732032  2.762451
 Ni 11.786594  4.512540  0.947623
 Ni 13.718037  4.409224  2.749412
 Ni  9.981692  8.083835  2.737839
 Ni 11.812170  6.324193  2.713197
 Ni 11.750259  8.142299  0.919013
 Ni 13.615067  8.149701  2.703370
 Ni  9.975805 11.752300  2.737608
 Ni 11.781012  9.952158  2.695862
 Ni 11.756350 11.784534  0.923069
 Ni 13.599651 11.787686  2.694195
 Ni  8.326272  0.884763  8.134475
 Ni 11.763126 13.560245  6.304112
 Ni 11.743464  0.917428  4.526074
 Ni 13.606018  0.901731  6.347747
 Ni  9.994590  4.627754  6.332874
 Ni 11.738035  2.734834  6.326496
 Ni 11.799800  4.518020  4.523165
 Ni 13.645007  4.535881  6.267215
 Ni  9.998843  8.164245  6.363540
 Ni 11.827490  6.351012  6.342585
 Ni 11.788847  8.150253  4.522605
 Ni 13.651498  8.141165  6.262816
 Ni 10.013963 11.647214  6.346127
 Ni 11.841784  9.931632  6.338242
 Ni 11.772273 11.768893  4.512645
 Ni 13.617790 11.773263  6.245590
 Ni 10.006645  0.904375  9.963010
 Ni 11.796720 13.569838  9.944712
 Ni 11.757371  0.913834  8.117331
 Ni 13.582393  0.916169  9.914174
 Ni  9.981836  4.549931  9.953059
 Ni 11.755267  2.734587  9.924782
 Ni 11.801262  4.547705  8.130547
 Ni 13.610462  4.537012  9.934233
 Ni 10.043435  8.150032  9.970870
 Ni 11.829900  6.326853  9.977904
 Ni 11.859969  8.134164  8.153243
 Ni 13.651946  8.055949  9.969461
 Ni 10.062110 11.724076  9.948612
 Ni 11.889881  9.930342  9.991229
 Ni 11.837894 11.737635  8.130333
 Ni 13.597012 11.811795  9.959281
 Ni  9.995454  0.918646 13.607246
 Ni 11.761798 13.573409 13.603108
 Ni 11.762542  0.916310 11.761899
 Ni 13.574523  0.964964 13.551137
 Ni  9.984721  4.528079 13.594710
 Ni 11.747807  2.730221 13.581757
 Ni 11.773937  4.531321 11.774267
 Ni 13.658467  4.433099 13.666700
 Ni 10.001270  8.151374 13.558020
 Ni 11.788677  6.314822 13.580020
 Ni 11.837958  8.133716 11.781834
 Ni 13.621526  8.134274 13.647066
 Ni  9.985874 11.752430 13.576648
 Ni 11.804086  9.952378 13.570562
 Ni 11.816369 11.751361 11.785711
 Ni 13.608434 11.786861 13.663109
 Ni  0.971592 13.615823  2.691504
 Ni  0.966840  0.943326  0.893232
 Ni  2.874038  0.857827  2.659412
 Ni  4.625456 13.534104  2.709217
 Ni  2.791592 13.608283  0.878913
 Ni  6.323231  0.962678  2.774084
 Ni  8.155372 13.551914  2.738100
 Ni  6.383696  2.680380  0.939762
 Ni  6.450775 13.525637  0.925371
 Ni  2.772060  2.757036  0.803990
 Ni  2.733783  4.545435  2.738404
 Ni  6.381108  4.535612  2.696864
 Ni  8.191931  2.760438  2.690502
 Ni  8.193594  4.578603  0.950546
 Ni  4.605835  4.548381  0.890183
 Ni  0.977569  6.345948  2.735272
 Ni  2.800484  8.119426  2.704160
 Ni  6.365812  6.386973  0.921278
 Ni  4.596345  8.170271  0.845761
 Ni  6.355780  8.212660  2.698985
 Ni  8.190643  4.695426  4.538766
 Ni  8.206805  8.150298  0.946276
 Ni  0.998741  9.962361  2.648123
 Ni  0.938386  9.952682 13.646565
 Ni  2.815978 11.795612  2.683713
 Ni  6.364936 10.016685  0.902445
 Ni  2.863549  9.963311  0.819344
 Ni  6.384453 11.723239  2.716921
 Ni  8.180254  9.920627  2.711777
 Ni  8.206439 11.735170  0.960653
 Ni  4.590380 10.011091 13.446040
 Ni  0.985707 13.551106  6.310539
 Ni  0.987590  0.894588  4.543565
 Ni  2.741299  0.872949  6.326236
 Ni  4.640994 13.529915  6.347812
 Ni  2.763583 13.528674  4.515697
 Ni  8.261175 13.465326  6.331167
 Ni  8.182646  0.911052  4.474234
 Ni  6.420174 13.540101  4.520637
 Ni  0.993624  2.696466  6.340617
 Ni  2.887982  4.504232  6.385703
 Ni  4.698566  2.573889  6.236259
 Ni  4.577890  4.457065  4.539874
 Ni  2.815516  2.655252  4.556830
 Ni  6.396852  4.488916  6.368572
 Ni  9.971411  0.909345  6.287014
 Ni  8.227604  2.773830  6.351266
 Ni  1.048079  6.411203  6.286398
 Ni  2.801408 10.018656  4.521609
 Ni  2.922917  6.375000  4.589514
 Ni  6.336922  8.237459  6.388452
 Ni  8.148470  8.126699  4.557937
 Ni  4.610925  8.232085  4.523359
 Ni  0.941084  9.966620  6.271582
 Ni  4.602954 10.058177  6.412665
 Ni  4.624629 11.779202  4.501596
 Ni  6.435658 11.769097  6.341588
 Ni  8.191458 11.679275  4.544667
 Ni  0.961421  0.902463  8.177800
 Ni  2.788443 13.583316  8.135710
 Ni  8.278021 13.502387  9.958954
 Ni  6.474419 13.556078  8.142905
 Ni  0.997032  4.560011  8.096919
 Ni  2.860175  4.507107  9.945039
 Ni  2.795250  2.647105  8.125059
 Ni  4.752134  2.540635 10.029151
 Ni  8.181939  2.726724  9.953373
 Ni  8.217727  4.583052  8.116046
 Ni  6.474554  2.658795  8.135022
 Ni  1.000864  8.114854  8.162735
 Ni  2.746074  8.156031  9.943201
 Ni  4.609519  6.288625  9.892672
 Ni  4.546530  8.173030  8.152164
 Ni  6.408583  8.140254  9.919964
 Ni  8.214600  6.391495  9.951208
 Ni  8.190342  8.144027  8.177453
 Ni  6.305250  6.355785  8.137342
 Ni  0.921406  9.956520  9.938975
 Ni  0.921968 11.758530  8.129581
 Ni  2.738807 11.754317  9.960598
 Ni  4.558771  9.939040 10.021830
 Ni  2.766268 10.012490  8.199539
 Ni  6.466052 11.777156  9.977984
 Ni  8.205698  9.942760  9.950179
 Ni  8.222006 11.719256  8.171201
 Ni  6.372155  9.964441  8.236144
 Ni  0.959632 13.608554 13.578003
 Ni  0.942566  0.927632 11.661525
 Ni  2.768923  0.852374 13.563274
 Ni  4.651017 13.438281 13.540056
 Ni  4.634797 13.729285  9.939308
 Ni  2.762383 13.587763 11.752169
 Ni  6.475837  0.851657 13.586397
 Ni  8.233127 13.585179 13.582450
 Ni  8.248312  0.890060 11.789051
 Ni  6.481253 13.552059 11.754411
 Ni  0.990250  6.324047 13.582568
 Ni  2.877418  6.334933  0.857111
 Ni  4.690373  2.716567 13.536264
 Ni  4.742485  4.523354 11.680696
 Ni  2.891356  2.702923 11.733903
 Ni  8.173211  0.913026  0.958438
 Ni  8.177813  4.544098 11.803416
 Ni  8.193942  2.719311 13.639041
 Ni  0.933528  8.094262 11.791492
 Ni  0.961676  4.462566 11.804941
 Ni  2.813429  8.142248 13.504987
 Ni  4.651726  6.415479 13.525219
 Ni  2.825774  6.317224 11.738091
 Ni  8.206680  6.359731 13.578916
 Ni  8.209401  8.158667 11.731023
 Ni  6.454635  6.410974 11.751998
 Ni  0.887286 11.822787 11.810420
 Ni  2.745223 11.786953 13.502887
 Ni  6.433721  9.942759 11.719664
 Ni  8.229403  9.939409 13.556888
 Ni  8.261581 11.738715 11.724883
%endblock positions_abs_intermediate 
     kpoint_mp_grid 1 1 1 
     fix_com : false