#######################################################
#CASTEP cell file: /home/u2093113/Documents/kART/barriers/CASTEP/castep.cell
#Created using the Atomic Simulation Environment (ASE)#
#######################################################

%BLOCK LATTICE_CART
14.464828  0.000000  0.000000
 0.000000 14.464828  0.000000
 0.000000  0.000000 14.464828
%ENDBLOCK LATTICE_CART

%BLOCK POSITIONS_ABS
Ni  8.217227  6.242731  2.717608
Ni 10.041311  4.452749  2.728326
Ni 10.033551  6.269875  0.927776
Al  8.255114  4.446669  0.932520
Ni 11.824143  6.272284  2.735155
Ni 13.629935  4.474726  2.726576
Ni 13.626241  6.278906  0.915688
Al 11.835790  4.472649  0.914406
Ni  8.165934  9.950052  2.770776
Ni 10.024607  8.084849  2.727831
Ni 10.031943  9.880705  0.932016
Al  8.243355  8.089677  0.952322
Ni 11.840521  9.879933  2.727818
Ni 13.624923  8.076338  2.729408
Ni 13.633336  9.876004  0.914000
Al 11.826325  8.074824  0.920753
Ni  8.234398 13.490114  2.691070
Ni 10.065780 11.701073  2.711622
Ni 10.074351 13.513194  0.899372
Al  8.321823 11.711201  0.872849
Ni 11.863898 13.504078  2.713491
Ni 13.636375 11.685928  2.721505
Ni 13.644549 13.497551  0.907593
Al 11.848083 11.684664  0.908190
Ni  8.230732  2.639688  2.715582
Ni 10.071729  0.843741  2.703869
Ni 10.050804  2.656239  0.910246
Al  8.277477  0.845400  0.918045
Ni 11.849722  2.661398  2.720321
Ni 13.643246  0.851468  2.719149
Ni 13.640855  2.669512  0.910844
Al 11.860640  0.855536  0.903158
Ni  8.129438  6.249320  6.382953
Ni 10.006438  4.447209  6.335978
Ni 10.009835  6.246293  4.550405
Al  8.239277  4.425632  4.522994
Ni 11.813746  6.272647  6.346069
Ni 13.628908  4.474745  6.347617
Ni 13.622346  6.277235  4.539452
Al 11.829452  4.464677  4.541039
Ni  8.155540  9.960731  6.271286
Ni  9.990636  8.084071  6.337495
Ni 10.034069  9.893040  4.531427
Al  8.293450  8.026164  4.511453
Ni 11.827230  9.878798  6.344804
Ni 13.622926  8.077716  6.345737
Ni 13.629273  9.878798  4.537605
Al 11.813296  8.072786  4.541608
Ni  8.218169 13.524389  6.370369
Ni 10.051251 11.708412  6.351678
Ni 10.088502 13.523219  4.529632
Al  8.351048 11.779900  4.529560
Ni 11.862125 13.502578  6.350950
Ni 13.635145 11.684826  6.348189
Ni 13.640173 13.499517  4.533897
Al 11.849409 11.692291  4.535501
Ni  8.229894  2.571723  6.339577
Ni 10.059257  0.833981  6.349463
Ni 10.052550  2.643458  4.529905
Al  8.308084  0.826236  4.474957
Ni 11.842695  2.660149  6.345104
Ni 13.643928  0.850731  6.349044
Ni 13.636678  2.664745  4.535468
Al 11.860655  0.852985  4.532714
Ni  8.152720  6.274713  9.883574
Ni 10.018475  4.478262  9.954683
Ni  9.994381  6.273187  8.134145
Al  8.249073  4.431078  8.131170
Ni 11.811474  6.282890  9.950773
Ni 13.631049  4.482981  9.956962
Ni 13.624783  6.281143  8.150997
Al 11.818841  4.477440  8.148819
Ni  8.207811  9.901645  9.974754
Ni  9.988251  8.076106  9.949213
Ni 10.006408  9.878870  8.136387
Al  8.206566  8.096195  8.122109
Ni 11.822976  9.865753  9.954644
Ni 13.626336  8.076616  9.954596
Ni 13.629459  9.875307  8.152879
Al 11.804584  8.075701  8.145034
Ni  8.252316 13.491820  9.991073
Ni 10.056718 11.682216  9.979964
Ni 10.081711 13.497926  8.170251
Al  8.312307 11.707863  8.190562
Ni 11.862445 13.492487  9.971815
Ni 13.638080 11.678011  9.960318
Ni 13.641934 13.496239  8.158766
Al 11.840503 11.678156  8.158494
Ni  8.263826  2.636602  9.975656
Ni 10.090035  0.843362  9.988791
Ni 10.060087  2.657619  8.155192
Al  8.348148  0.830736  8.234576
Ni 11.845189  2.676203  9.965932
Ni 13.642839  0.852402  9.962696
Ni 13.634158  2.668677  8.155225
Al 11.855700  0.851411  8.160683
Ni  8.216165  6.274764 13.613642
Ni 10.027872  4.469316 13.580369
Ni  9.987060  6.283573 11.754399
Al  8.268554  4.464294 11.774200
Ni 11.819546  6.278761 13.567692
Ni 13.633898  4.481264 13.566796
Ni 13.627757  6.281861 11.760214
Al 11.819437  4.487274 11.763069
Ni  8.218768  9.898213 13.587155
Ni 10.016346  8.077671 13.586628
Ni 10.026814  9.872744 11.770886
Al  8.229590  8.085117 11.787018
Ni 11.833219  9.869178 13.574146
Ni 13.629051  8.075285 13.569780
Ni 13.631703  9.870425 11.762839
Al 11.811423  8.069854 11.760634
Ni  8.239162 13.513995 13.561436
Ni 10.063078 11.689213 13.562058
Ni 10.067532 13.496236 11.775951
Al  8.255143 11.694846 11.781297
Ni 11.861050 13.501759 13.566666
Ni 13.638889 11.680711 13.569289
Ni 13.649611 13.495728 11.765839
Al 11.849917 11.675463 11.767717
Ni  8.226687  2.638575 13.575181
Ni 10.057829  0.851851 13.567552
Ni 10.051577  2.664870 11.776603
Al  8.281923  0.838178 11.761474
Ni 11.848617  2.671156 13.569776
Ni 13.650326  0.853241 13.567002
Ni 13.641386  2.675034 11.763607
Al 11.861621  0.854722 11.774019
Ni  1.031623  6.231570  2.666982
Ni  2.773149  4.425492  2.677215
Al  4.754180  2.639411 13.516102
Ni  0.933734  4.421580  0.854743
Ni  4.517220  6.250704  2.681906
Ni  6.406645  4.423113  2.726492
Ni  4.587048  8.070029  0.900445
Ni  4.630589  4.401561  0.895510
Al  0.814502  0.836518 11.688191
Ni  0.948977  8.109739  0.823569
Ni  0.946586  9.941971  2.706665
Al  2.791460  2.752814 11.645431
Ni  4.555714  9.904717  2.660500
Ni  6.398761  8.074587  2.707481
Ni  6.431232  9.933977  0.957651
Ni  2.749214  9.931628  0.886289
Ni  0.954359 13.516704  2.693349
Ni  4.577802 11.760733  0.908231
Ni  2.746616 13.547684  0.841715
Al  4.650103 13.531343 13.592153
Ni  4.537344 13.582084  2.682407
Ni  4.603735 11.733846  4.485781
Ni  6.434593 13.539324  0.903841
Al  2.787144 13.445698 11.645099
Ni  0.948058  2.620183  2.670293
Ni  4.565274  0.895038  0.867868
Ni  0.965103  0.847319  0.814816
Ni  4.551795  2.602140  2.693351
Ni  6.412019  0.825625  2.718215
Ni  6.438202  2.630683  0.924319
Ni  2.791371  0.885015 13.432502
Ni  0.946395  6.229012  6.338347
Ni  2.815815  4.441582  6.355619
Al  4.608246  9.980342 13.658732
Ni  0.925330  4.401208  4.518153
Al  1.081323  9.945729 13.446471
Ni  6.475105  4.383893  6.317017
Ni  6.420990  6.255972  4.481468
Ni  4.628676  4.434479  4.515571
Ni  1.039526  9.888736  6.371707
Ni  2.806602  7.989821  6.282483
Ni  2.783713  9.879282  4.506909
Ni  0.968143  8.068805  4.510142
Ni  4.577091  9.838066  6.342356
Ni  6.448272  8.102196  6.282745
Al  2.873849  2.728353  8.284171
Ni  4.549032  7.995607  4.478940
Ni  0.968670  0.878109  4.540461
Al  0.973929 11.650716  8.186135
Ni  1.017391 11.770017  4.584028
Ni  4.557117 13.566448  6.367947
Ni  6.423295 13.544845  4.545380
Ni  2.766554 13.562450  4.535972
Al  4.717003  9.907994  9.965707
Al  2.811652  9.654512  8.153429
Ni  2.816650  0.924877  6.385995
Ni  2.764503  2.663470  4.506962
Ni  4.599955  2.645924  6.360869
Ni  6.419035  2.583640  4.531571
Al  4.878250  6.201664  9.847464
Al  4.752273  8.028297 11.861106
Al  2.780537  6.261277  8.055183
Al  0.923007  6.298071  9.959582
Ni  0.945188  4.476323  8.171375
Ni  6.517491  4.416222  9.937277
Ni  4.709468  4.490520  8.125102
Al  4.593109  0.873382  4.517677
Al  6.370568  0.825324  6.437752
Al  2.688478  0.794129  2.684469
Ni  0.970716  9.813662  9.964994
Al  0.990947  2.678488  6.390860
Ni  0.935974  8.041011  8.164584
Ni  2.897306  7.923247 10.009952
Ni  6.463295  8.104697  9.959587
Ni  6.437705  9.917382  8.109947
Ni  4.712047  7.998752  8.143209
Al  6.270166 11.784011  6.361574
Ni  0.942045 13.477652  9.931041
Ni  2.798103 11.608051  9.903553
Ni  2.772578 13.496075  8.178727
Al  1.026156 13.670699  6.398941
Ni  4.604823 13.477607  9.961561
Ni  6.449229 11.709442  9.937344
Ni  6.427533 13.502817  8.177418
Ni  4.571866 11.658783  8.155515
Al  2.914275 11.694923  6.251524
Ni  0.948927  2.694930  9.936053
Ni  2.768579  0.857198  9.999624
Al  6.250944  9.804060  4.488659
Ni  0.991193  0.902109  8.191487
Ni  4.641706  2.690541  9.984673
Ni  6.455691  0.832056  9.946675
Ni  6.447468  2.618132  8.166502
Ni  4.601300  0.862046  8.216117
Ni  0.961008  6.240689 13.525110
Ni  2.819441  4.381208 13.528730
Ni  2.829180  4.603373  9.941531
Ni  0.924544  4.469959 11.697489
Ni  4.639684  6.240808 13.589430
Ni  6.478459  4.451105 13.589912
Ni  6.481411  6.256608 11.783972
Ni  4.690101  4.483832 11.754173
Al  4.839065  6.231872  6.354085
Ni  0.972256 11.730082  0.847671
Ni  2.812823  8.077984 13.565605
Ni  2.892128  9.837197 11.724711
Ni  0.961209  8.061318 11.751794
Al  2.726738  6.150073  4.535021
Ni  6.403174  6.246382  0.953534
Ni  6.418247  9.904644 11.808571
Ni  6.442566  8.099815 13.651230
Al  2.706435  2.695423  0.834500
Ni  0.986212 13.488695 13.460379
Ni  2.818066 11.738558 13.520526
Al  6.282866 11.816878  2.683388
Ni  0.965250 11.674475 11.688546
Al  2.773223 11.738927  2.717756
Ni  6.437267 11.725544 13.608388
Ni  6.434469 13.507915 11.761023
Ni  4.646983 11.708447 11.765235
Al  2.771280  6.164135  0.806096
Al  2.799276  6.181548 11.882705
Ni  0.961025  2.649377 13.461943
Al  2.732549  8.174968  2.669215
Ni  4.633547  0.836991 11.736609
Ni  6.456327  0.832453 13.566823
Ni  6.466752  2.639080 11.744759
%ENDBLOCK POSITIONS_ABS

FIX_ALL_CELL: TRUE
KPOINT_MP_GRID: 1 1 1
