#######################################################
#CASTEP cell file: /home/u2093113/Documents/kART/barriers/CASTEP/castep.cell
#Created using the Atomic Simulation Environment (ASE)#
#######################################################

%BLOCK LATTICE_CART
14.464828  0.000000  0.000000
 0.000000 14.464828  0.000000
 0.000000  0.000000 14.464828
%ENDBLOCK LATTICE_CART

%BLOCK POSITIONS_ABS
Ni  8.217238  6.242694  2.717602
Ni 10.041333  4.452696  2.728345
Ni 10.033570  6.269837  0.927813
Al  8.255127  4.446609  0.932555
Ni 11.824159  6.272245  2.735191
Ni 13.629951  4.474672  2.726630
Ni 13.626264  6.278857  0.915744
Al 11.835818  4.472596  0.914458
Ni  8.165902  9.950025  2.770802
Ni 10.024609  8.084820  2.727849
Ni 10.031933  9.880664  0.932055
Al  8.243337  8.089639  0.952343
Ni 11.840523  9.879894  2.727863
Ni 13.624937  8.076294  2.729461
Ni 13.633354  9.875956  0.914054
Al 11.826344  8.074788  0.920799
Ni  8.234372 13.490057  2.691125
Ni 10.065763 11.701024  2.711671
Ni 10.074348 13.513117  0.899427
Al  8.321788 11.711143  0.872896
Ni 11.863908 13.504011  2.713544
Ni 13.636392 11.685873  2.721560
Ni 13.644563 13.497490  0.907646
Al 11.848088 11.684606  0.908241
Ni  8.230747  2.639611  2.715604
Ni 10.071741  0.843666  2.703915
Ni 10.050830  2.656167  0.910299
Al  8.277482  0.845317  0.918097
Ni 11.849742  2.661332  2.720366
Ni 13.643263  0.851406  2.719204
Ni 13.640874  2.669451  0.910898
Al 11.860656  0.855462  0.903213
Ni  8.129493  6.249292  6.382925
Ni 10.006454  4.447170  6.335992
Ni 10.009852  6.246263  4.550408
Al  8.239319  4.425582  4.522975
Ni 11.813750  6.272608  6.346099
Ni 13.628913  4.474697  6.347665
Ni 13.622354  6.277188  4.539500
Al 11.829461  4.464629  4.541072
Ni  8.155518  9.960682  6.271316
Ni  9.990637  8.084039  6.337515
Ni 10.034054  9.893008  4.531459
Al  8.293451  8.026141  4.511445
Ni 11.827232  9.878752  6.344844
Ni 13.622935  8.077667  6.345782
Ni 13.629285  9.878748  4.537657
Al 11.813299  8.072753  4.541642
Ni  8.218165 13.524346  6.370413
Ni 10.051241 11.708356  6.351717
Ni 10.088502 13.523157  4.529680
Al  8.351010 11.779863  4.529607
Ni 11.862136 13.502513  6.350997
Ni 13.635162 11.684769  6.348242
Ni 13.640190 13.499458  4.533952
Al 11.849414 11.692238  4.535549
Ni  8.229936  2.571684  6.339599
Ni 10.059279  0.833925  6.349502
Ni 10.052573  2.643394  4.529931
Al  8.308091  0.826179  4.475000
Ni 11.842706  2.660100  6.345144
Ni 13.643936  0.850676  6.349100
Ni 13.636690  2.664690  4.535521
Al 11.860672  0.852919  4.532761
Ni  8.152790  6.274678  9.883663
Ni 10.018503  4.478224  9.954735
Ni  9.994401  6.273155  8.134176
Al  8.249111  4.431080  8.131202
Ni 11.811489  6.282849  9.950820
Ni 13.631055  4.482931  9.957012
Ni 13.624791  6.281094  8.151043
Al 11.818845  4.477400  8.148858
Ni  8.207790  9.901561  9.974780
Ni  9.988270  8.076066  9.949257
Ni 10.006395  9.878807  8.136421
Al  8.206556  8.096115  8.122137
Ni 11.822989  9.865700  9.954685
Ni 13.626354  8.076564  9.954644
Ni 13.629476  9.875251  8.152927
Al 11.804595  8.075658  8.145071
Ni  8.252343 13.491755  9.991106
Ni 10.056711 11.682138  9.979996
Ni 10.081721 13.497857  8.170288
Al  8.312293 11.707798  8.190590
Ni 11.862451 13.492413  9.971859
Ni 13.638097 11.677952  9.960367
Ni 13.641943 13.496180  8.158819
Al 11.840510 11.678090  8.158537
Ni  8.263896  2.636559  9.975708
Ni 10.090064  0.843298  9.988831
Ni 10.060107  2.657584  8.155225
Al  8.348193  0.830689  8.234610
Ni 11.845196  2.676153  9.965978
Ni 13.642837  0.852346  9.962748
Ni 13.634162  2.668627  8.155276
Al 11.855707  0.851354  8.160727
Ni  8.216175  6.274715 13.613695
Ni 10.027908  4.469265 13.580439
Ni  9.987100  6.283540 11.754468
Al  8.268623  4.464244 11.774284
Ni 11.819574  6.278720 13.567751
Ni 13.633913  4.481209 13.566850
Ni 13.627772  6.281809 11.760266
Al 11.819450  4.487225 11.763125
Ni  8.218744  9.898153 13.587190
Ni 10.016356  8.077631 13.586677
Ni 10.026810  9.872682 11.770926
Al  8.229588  8.085062 11.787067
Ni 11.833230  9.869129 13.574194
Ni 13.629074  8.075237 13.569834
Ni 13.631723  9.870373 11.762889
Al 11.811448  8.069814 11.760686
Ni  8.239168 13.513914 13.561485
Ni 10.063069 11.689143 13.562105
Ni 10.067544 13.496154 11.775995
Al  8.255137 11.694767 11.781326
Ni 11.861056 13.501685 13.566719
Ni 13.638905 11.680654 13.569340
Ni 13.649617 13.495667 11.765889
Al 11.849923 11.675395 11.767762
Ni  8.226729  2.638504 13.575253
Ni 10.057850  0.851772 13.567615
Ni 10.051611  2.664808 11.776667
Al  8.281976  0.838107 11.761529
Ni 11.848636  2.671092 13.569836
Ni 13.650334  0.853179 13.567053
Ni 13.641389  2.674979 11.763658
Al 11.861627  0.854654 11.774071
Ni  1.031652  6.231485  2.667017
Ni  2.773165  4.425421  2.677243
Al  4.754203  2.639328 13.516107
Ni  0.933761  4.421499  0.854759
Ni  4.517224  6.250632  2.681928
Ni  6.406664  4.423048  2.726498
Ni  4.587022  8.069949  0.900450
Ni  4.630597  4.401476  0.895520
Al  0.814494  0.836474 11.688194
Ni  0.949044  8.109636  0.823579
Ni  0.946652  9.941906  2.706702
Al  2.791471  2.752743 11.645419
Ni  4.555689  9.904663  2.660528
Ni  6.398742  8.074546  2.707483
Ni  6.431191  9.933929  0.957671
Ni  2.749233  9.931544  0.886288
Ni  0.954424 13.516669  2.693412
Ni  4.577781 11.760686  0.908250
Ni  2.746635 13.547648  0.841743
Al  4.650110 13.531298 13.592154
Ni  4.537315 13.582061  2.682473
Ni  4.603710 11.733814  4.485847
Ni  6.434569 13.539263  0.903880
Al  2.787166 13.445680 11.645087
Ni  0.948087  2.620141  2.670341
Ni  4.565275  0.894985  0.867892
Ni  0.965137  0.847270  0.814851
Ni  4.551803  2.602084  2.693387
Ni  6.412001  0.825568  2.718262
Ni  6.438208  2.630605  0.924350
Ni  2.791389  0.884967 13.432502
Ni  0.946389  6.228943  6.338384
Ni  2.815856  4.441547  6.355680
Al  4.608230  9.980269 13.658724
Ni  0.925334  4.401150  4.518213
Al  1.081391  9.945632 13.446456
Ni  6.475193  4.383873  6.317002
Ni  6.421026  6.255929  4.481448
Ni  4.628718  4.434426  4.515584
Ni  1.039574  9.888669  6.371758
Ni  2.806626  7.989718  6.282516
Ni  2.783736  9.879218  4.506965
Ni  0.968175  8.068736  4.510183
Ni  4.577092  9.837988  6.342406
Ni  6.448284  8.102128  6.282746
Al  2.873900  2.728386  8.284241
Ni  4.549035  7.995542  4.478954
Ni  0.968733  0.878117  4.540558
Al  0.973976 11.650678  8.186180
Ni  1.017464 11.769977  4.584096
Ni  4.557112 13.566456  6.368037
Ni  6.423258 13.544828  4.545450
Ni  2.766574 13.562461  4.536073
Al  4.717029  9.907910  9.965709
Al  2.811688  9.654424  8.153455
Ni  2.816694  0.924936  6.386123
Ni  2.764532  2.663475  4.507044
Ni  4.600041  2.645955  6.360937
Ni  6.419067  2.583592  4.531599
Al  4.878247  6.201551  9.847546
Al  4.752257  8.028204 11.861108
Al  2.780568  6.261168  8.055205
Al  0.922986  6.297947  9.959560
Ni  0.945152  4.476261  8.171405
Ni  6.517588  4.416188  9.937359
Ni  4.709598  4.490527  8.125142
Al  4.593098  0.873397  4.517767
Al  6.370586  0.825314  6.437814
Al  2.688491  0.794117  2.684531
Ni  0.970751  9.813598  9.965000
Al  0.990943  2.678495  6.390951
Ni  0.935991  8.040918  8.164609
Ni  2.897315  7.923149 10.009938
Ni  6.463289  8.104586  9.959615
Ni  6.437691  9.917294  8.109972
Ni  4.712082  7.998600  8.143225
Al  6.270135 11.783972  6.361624
Ni  0.942061 13.477627  9.931070
Ni  2.798133 11.608010  9.903576
Ni  2.772620 13.496080  8.178814
Al  1.026233 13.670711  6.399039
Ni  4.604869 13.477590  9.961595
Ni  6.449240 11.709384  9.937364
Ni  6.427548 13.502793  8.177462
Ni  4.571881 11.658747  8.155561
Al  2.914305 11.694887  6.251602
Ni  0.948893  2.694886  9.936060
Ni  2.768616  0.857201  9.999657
Al  6.250910  9.804016  4.488689
Ni  0.991200  0.902110  8.191563
Ni  4.641790  2.690532  9.984708
Ni  6.455770  0.832022  9.946718
Ni  6.447573  2.618129  8.166551
Ni  4.601375  0.862066  8.216199
Ni  0.961045  6.240577 13.525094
Ni  2.819449  4.381104 13.528725
Ni  2.829207  4.603263  9.941514
Ni  0.924522  4.469851 11.697482
Ni  4.639671  6.240708 13.589418
Ni  6.478481  4.451028 13.589951
Ni  6.481432  6.256534 11.784025
Ni  4.690139  4.483720 11.754210
Al  4.839088  6.231796  6.354051
Ni  0.972323 11.730025  0.847695
Ni  2.812837  8.077861 13.565561
Ni  2.892158  9.837119 11.724688
Ni  0.961244  8.061200 11.751756
Al  2.726743  6.149981  4.535049
Ni  6.403153  6.246317  0.953547
Ni  6.418226  9.904564 11.808586
Ni  6.442534  8.099746 13.651250
Al  2.706455  2.695354  0.834511
Ni  0.986248 13.488649 13.460395
Ni  2.818087 11.738509 13.520517
Al  6.282813 11.816848  2.683441
Ni  0.965288 11.674424 11.688556
Al  2.773242 11.738884  2.717805
Ni  6.437246 11.725483 13.608408
Ni  6.434503 13.507856 11.761051
Ni  4.646993 11.708397 11.765232
Al  2.771300  6.164037  0.806104
Al  2.799281  6.181418 11.882673
Ni  0.961027  2.649302 13.461954
Al  2.732564  8.174885  2.669252
Ni  4.633602  0.836954 11.736623
Ni  6.456357  0.832382 13.566860
Ni  6.466841  2.639018 11.744813
%ENDBLOCK POSITIONS_ABS

FIX_ALL_CELL: TRUE
KPOINT_MP_GRID: 1 1 1
