#######################################################
#CASTEP cell file: /home/u2093113/Documents/kART/CASTEP/castep.cell
#Created using the Atomic Simulation Environment (ASE)#
#######################################################

%BLOCK LATTICE_CART
14.464828  0.000000  0.000000
 0.000000 14.464828  0.000000
 0.000000  0.000000 14.464828
%ENDBLOCK LATTICE_CART

%BLOCK POSITIONS_ABS
Al 13.585361  2.722912  8.109801
Al 13.596179  6.350247  8.101814
Al 13.554282  9.847360  8.027766
Al 13.436943 13.638176  8.192273
Al 13.511005  2.725426 11.645355
Al 13.511355  6.357135 11.654092
Al 13.744777  9.937812 11.774294
Al 13.646939 13.552673 11.644538
Al 13.467299  2.606631  0.964271
Al 13.402364  6.347681  0.960320
Al 13.558764 10.065662  0.916915
Al 13.589073 13.575718  0.856900
Al 13.624789  2.678612  4.476178
Al 13.604085  6.324208  4.478204
Al 13.601137 10.007635  4.491762
Al 13.416993 13.580078  4.491971
Al 10.119086  0.945654  6.271744
Al  6.172885 13.571278  4.468164
Al  8.147119  0.993134  4.411865
Al  2.542560  0.812359  9.815072
Al  2.946541 13.567833  4.496940
Al  2.572216 10.060929  4.506155
Al  4.592918  0.889574  8.021325
Al  0.990478 13.667867  6.323328
Al 10.038275 11.777366  6.364016
Al  8.154235 11.682814  4.403054
Al  4.548060  8.262222  8.177735
Al  2.647043  8.060557  6.277198
Al 10.109061  4.424391  6.271659
Al  6.430118  8.115419  6.219380
Al  4.513188  4.673761  4.761644
Al  8.233673  0.958017  1.003931
Al  1.027148 13.571309  2.634875
Al  6.313853  9.983488  0.914072
Al  4.495098  9.936816  2.736212
Al 10.087850  8.123790  2.799389
Al  8.176758  8.052914  0.992816
Al  4.515041  6.421526  2.630880
Al  1.083959  8.230195  0.975245
Al 10.091707  4.523441  2.685432
Al  9.968472  8.205790  6.218286
Al  7.998510  6.389446 13.444012
Al  7.973406  4.454297  0.929932
Al  4.528415  2.677967  2.658672
Al  1.101336  4.512229  1.088889
Al  9.902116 13.585538 11.703435
Al 11.661621 13.576717 13.601635
Al  8.023315 13.518245  9.857357
Al  6.368367  0.900629 13.554438
Al  4.541083  0.802603 11.665982
Al 11.559425  9.981032 13.525645
Al  6.409365 11.971225 13.574283
Al  8.282521  9.954041 13.432956
Al  4.567671 11.812743 11.753029
Al 10.064026  6.464156 11.564346
Al  2.761646  6.228595 11.681168
Al  4.649924  8.300986 11.799667
Al  0.976431  6.316212 13.536530
Al 10.138334  4.394384 13.533568
Al  8.018627  4.372402 11.568609
Al  2.755818  2.874816 11.662193
Al  0.976748  2.666808 13.562758
Al  8.073022  0.987686  8.026919
Al 11.632526  9.964912  9.920315
Al  8.115672  9.984374  9.867631
Al  4.611976 11.719039  7.987675
Al  2.673045 11.770611  9.981896
Al  0.954726 11.684295  8.071419
Al  8.044178  4.442790  8.190118
Al  8.009033  4.543882  4.507470
Al  9.999650  6.373902  8.256897
Al  4.645278  6.184462  9.809700
Ni 13.581349  4.538267  9.896505
Ni 13.587504  8.223202  9.928931
Ni 13.565651 11.644205  9.909227
Ni 13.586036  0.931360  9.934902
Ni 11.806451  4.497915  0.876436
Ni 13.642767  8.114899 13.622915
Ni 13.560081 11.778551 13.530023
Ni 13.566561  0.872334 13.516714
Ni 13.604125  4.494807  2.651301
Ni 13.559979  8.193315  2.609249
Ni 13.578760 11.856877  2.671875
Ni 13.596929  0.825071  2.679443
Ni 13.585998  4.529711  6.310614
Ni 13.600901  8.111694  6.290767
Ni 13.591366 11.854665  6.371482
Ni 13.551203  0.867187  6.275138
Ni  0.941258  2.750016  9.893359
Ni  0.936573  4.537629  8.114935
Ni  2.735531  4.537041  9.832673
Ni  4.461104  2.635342  9.900071
Ni  4.499662  4.513691  8.006775
Ni  2.717457  2.697160  8.088765
Ni  6.272481  4.416049  9.874394
Ni  8.152537  2.638264  9.888739
Ni  6.280992  2.714648  8.058415
Ni  9.954741  4.514018  9.938515
Ni 11.718500  2.716741  9.904321
Ni  9.919743  8.201959  9.903374
Ni  9.966480  2.709315  8.110953
Ni  0.947131  6.339996  9.897007
Ni  0.957679  8.125316  8.146673
Ni  2.820741  8.100778  9.991628
Ni  6.295893  6.391215  8.020798
Ni  2.791434  6.380491  8.091020
Ni  6.323475  8.135736  9.902523
Ni  9.900215  9.984650 11.673421
Ni 11.815819  6.381188  9.881670
Ni 11.741786  8.166373  8.091086
Ni  8.160468  8.114060  8.083957
Ni  0.979401  9.918265  9.890865
Ni  4.541956 10.034185  9.940475
Ni  2.761152  9.963146  8.129262
Ni  6.335017 11.749865  9.885724
Ni  9.926943  9.957699  8.075860
Ni  8.145393 11.766765  8.031750
Ni  9.930129 11.825139  9.876298
Ni 11.812597  8.252444 11.750157
Ni 11.776372 11.744091  8.139630
Ni  0.878737 13.491962  9.840774
Ni  0.869042  0.915191  8.060132
Ni  2.766964 13.497358  8.102977
Ni  4.565652 13.549366  9.869524
Ni  2.710506 11.768348  6.277379
Ni  4.552350 13.547137  6.324087
Ni  6.351940  0.909896  9.861254
Ni  9.915118 13.630345  8.102924
Ni  6.391864 13.556137  8.012301
Ni  9.935482  0.878577  9.903888
Ni 11.738565 13.548080  9.924671
Ni 11.748861  0.933705  8.159368
Ni  8.154429 13.596870  6.188781
Ni  0.883568  4.535513 11.720975
Ni  2.726895  4.523608 13.563927
Ni  4.543727  2.682646 13.505292
Ni  4.575985  4.517224 11.720529
Ni  6.344920  4.511096 13.489576
Ni  8.175400  2.743543 13.510977
Ni  6.280509  2.627119 11.701382
Ni 11.820133  2.652779 13.522830
Ni 11.777821  4.527194 11.691634
Ni  9.964479  2.687558 11.704184
Ni  0.964792  8.076130 11.745006
Ni  2.759178  8.146274 13.507214
Ni  4.560711  6.355173 13.501313
Ni  6.404927  8.236455 13.609588
Ni  6.296668  6.341445 11.689325
Ni  8.101860  8.142136 11.679647
Ni  8.071970  6.324054  9.898331
Ni  9.897445  8.062901 13.512065
Ni 13.662004  4.508210 13.643457
Ni 11.758285  6.353784 13.520462
Ni  0.970492  9.950359 13.574376
Ni  0.920481 11.770110 11.772646
Ni  2.712106 11.776758 13.542653
Ni  4.553830 10.072479 13.560535
Ni  2.729141  9.967588 11.743172
Ni  6.359900 13.601207 11.718792
Ni  6.381651 10.049563 11.764306
Ni  9.908676 11.830182 13.555424
Ni 11.738230 11.778711 11.735236
Ni  8.160347 11.812859 11.710251
Ni  0.962119 13.602058 13.510307
Ni  0.939823  0.977910 11.736755
Ni  2.753602  0.944608 13.497713
Ni  4.513496 13.584139 13.552528
Ni  2.714375 13.576732 11.713744
Ni  8.179181 13.665905 13.596779
Ni  8.167389  0.923529 11.695622
Ni  9.971777  0.957955 13.528343
Ni 11.750707  0.848653 11.724209
Ni  0.963870  2.657427  2.686903
Ni  2.854433  4.530130  2.763506
Ni  2.727732  2.735088  4.505515
Ni  4.541090  4.524571  0.819110
Ni  2.779440  2.698120  0.861848
Ni  6.310478  2.679406  0.847082
Ni 11.760615  2.688770  2.716727
Ni  9.968134  2.755366  0.916172
Ni  0.932804  6.366661  2.655705
Ni  2.723401  8.182508  2.748636
Ni  4.529405  8.194047  0.845139
Ni  2.762307  6.361378  0.842834
Ni  6.332788  8.148782  2.691796
Ni  6.334831  6.339407  0.852071
Ni  8.150846  6.262496  2.698403
Ni 11.765763  6.333364  2.734106
Ni 11.706584  8.184761  0.833650
Ni  9.895483  6.237405  0.797890
Ni  0.901292 10.049204  2.662693
Ni  0.952273 11.805557  0.848087
Ni  2.740415 11.785977  2.671479
Ni  4.546595 11.800961  0.898737
Ni  2.787153 10.012154  0.863623
Ni  6.311040 11.760267  2.688417
Ni  8.151746  9.900324  2.680916
Ni  8.110391 11.738951  0.871598
Ni  9.960628 11.749006  2.654776
Ni 11.762001  9.985624  2.689464
Ni 11.719184 11.761043  0.877751
Ni  9.882855  9.925620  0.926171
Ni  0.949252  0.908307  0.857535
Ni  2.737335  0.897672  2.671237
Ni  4.530781 13.587170  2.625515
Ni  4.512395  0.884432  0.866235
Ni  2.747963 13.590339  0.823210
Ni  6.316029  0.932669  2.706742
Ni  8.125487 13.550074  2.758821
Ni  6.368769 13.628666  0.949041
Ni  9.984103  0.922892  2.704945
Ni 11.713783 13.562478  2.659914
Ni 11.718350  0.876738  0.891490
Ni  9.901971 13.565623  0.937631
Ni  0.921640  2.692204  6.294106
Ni  0.945836  4.513118  4.464352
Ni  2.651264  4.526822  6.320489
Ni  4.520101  2.730235  6.294151
Ni  6.178949  4.544289  2.727238
Ni  2.735733  0.934077  6.296028
Ni  6.344037  4.559628  6.342458
Ni  8.159533  2.728428  6.272289
Ni  8.110990  2.806081  2.717238
Ni  6.285455  2.760868  4.519869
Ni  9.972485  6.247459  4.505026
Ni 11.835722  2.714113  6.291891
Ni 11.851431  4.513184  4.497064
Ni  9.974347  2.742930  4.468548
Ni  0.924960  6.308738  6.299406
Ni  0.899804  8.162375  4.443669
Ni  4.511228  9.854002  6.259491
Ni  2.689046  6.321664  4.484329
Ni  6.379543  9.949000  8.052929
Ni  8.266886  6.228024  6.368885
Ni  8.184453  8.119492  4.457847
Ni  6.345524  6.371407  4.488126
Ni 11.769693  4.526158  8.140019
Ni 11.840331  8.151148  4.521554
Ni 11.720641  6.337670  6.311286
Ni  0.909913  9.946417  6.307562
Ni  0.891094 11.942573  4.510325
Ni  4.530658 11.667801  4.511155
Ni  4.486347  8.111583  4.515838
Ni  6.378814 11.730883  6.223234
Ni  8.170449  9.973889  6.267841
Ni  6.350584  9.888433  4.478292
Ni 11.798616  9.963790  6.275409
Ni 11.759462 11.754801  4.460221
Ni  9.998126 10.000722  4.480356
Ni  0.970554  0.806146  4.476026
Ni  4.504150  0.979901  4.516559
Ni  6.328265  0.929161  6.214006
Ni  9.981310 13.553915  4.470329
Ni 11.743603 13.566570  6.313954
Ni 11.771088  0.927571  4.442417
%ENDBLOCK POSITIONS_ABS

