#######################################################
#CASTEP cell file: /home/u2093113/Documents/kART/CASTEP/castep.cell
#Created using the Atomic Simulation Environment (ASE)#
#######################################################

%BLOCK LATTICE_CART
14.464828  0.000000  0.000000
 0.000000 14.464828  0.000000
 0.000000  0.000000 14.464828
%ENDBLOCK LATTICE_CART

%BLOCK POSITIONS_ABS
Al 13.584343  2.733396  8.104124
Al 13.599149  6.353477  8.094084
Al 13.553503  9.851291  8.025904
Al 13.428655 13.641699  8.192347
Al 13.506484  2.734455 11.643799
Al 13.503687  6.363293 11.663287
Al 13.740730  9.939190 11.775638
Al 13.639996 13.556797 11.641507
Al 13.461502  2.612175  0.961638
Al 13.403716  6.353923  0.956627
Al 13.555264 10.071449  0.915439
Al 13.581727 13.580717  0.855965
Al 13.619599  2.683317  4.473972
Al 13.600435  6.330622  4.468147
Al 13.592712 10.016273  4.484760
Al 13.410987 13.584202  4.491600
Al 10.114177  0.951029  6.275223
Al  6.179697 13.577394  4.468548
Al  8.146232  1.004096  4.412785
Al  2.532043  0.816741  9.813304
Al  2.941669 13.571357  4.495320
Al  2.569703 10.071959  4.499744
Al  4.587783  0.887927  8.019652
Al  0.982885 13.673309  6.320778
Al 10.033528 11.782558  6.367998
Al  8.154879 11.683326  4.401262
Al  4.519526  8.326881  8.176104
Al  2.607759  8.080540  6.288799
Al 10.109015  4.431984  6.272886
Al  6.451328  8.094777  6.271416
Al  4.514996  4.594077  4.687200
Al  8.232790  0.961016  0.996228
Al  1.019654 13.579446  2.631178
Al  6.318333  9.987202  0.912888
Al  4.502624  9.949804  2.735693
Al 10.078646  8.129927  2.797912
Al  8.171087  8.056912  0.988098
Al  4.517757  6.431892  2.624202
Al  1.088887  8.234301  0.974395
Al 10.085919  4.526726  2.683268
Al  9.980011  8.211256  6.219656
Al  7.990516  6.398948 13.432840
Al  7.972422  4.461758  0.923040
Al  4.532337  2.666690  2.637274
Al  1.101607  4.520640  1.083720
Al  9.903008 13.590034 11.697978
Al 11.662531 13.583223 13.597953
Al  8.023459 13.524493  9.858298
Al  6.367416  0.901770 13.553176
Al  4.532044  0.802384 11.669532
Al 11.555909  9.979411 13.523350
Al  6.408491 11.979408 13.570113
Al  8.279522  9.955821 13.426338
Al  4.560988 11.826374 11.755836
Al 10.051308  6.463818 11.553046
Al  2.792914  6.230724 11.639223
Al  4.649824  8.303062 11.793247
Al  0.994119  6.321882 13.523029
Al 10.136328  4.403401 13.531338
Al  8.015611  4.379710 11.563183
Al  2.750073  2.877479 11.660478
Al  0.969582  2.673529 13.563265
Al  8.073553  1.001398  8.027487
Al 11.637350  9.964307  9.920528
Al  8.116485 10.001057  9.870959
Al  4.611397 11.727963  7.992732
Al  2.664188 11.778935  9.982959
Al  0.942545 11.695207  8.073097
Al  8.012925  4.473304  8.187039
Al  7.994705  4.551682  4.513965
Al  9.991701  6.376705  8.257906
Al  4.761184  6.188332  9.693712
Ni 13.587031  4.548664  9.897248
Ni 13.588965  8.222543  9.935453
Ni 13.563058 11.646085  9.910749
Ni 13.583907  0.940345  9.932871
Ni 11.807505  4.504197  0.872385
Ni 13.646489  8.119049 13.621936
Ni 13.554484 11.784812 13.530397
Ni 13.564248  0.878981 13.516721
Ni 13.605290  4.498148  2.650830
Ni 13.560388  8.199565  2.600749
Ni 13.573200 11.864123  2.670059
Ni 13.593549  0.829622  2.678504
Ni 13.585865  4.525915  6.298443
Ni 13.600016  8.122033  6.282159
Ni 13.588915 11.863832  6.370133
Ni 13.544481  0.872269  6.273300
Ni  0.933176  2.756395  9.892101
Ni  0.935202  4.540729  8.107562
Ni  2.741562  4.533764  9.831776
Ni  4.452903  2.614909  9.900532
Ni  4.481131  4.460822  8.038553
Ni  2.703822  2.687718  8.086792
Ni  6.268873  4.369859  9.886575
Ni  8.160073  2.646267  9.887038
Ni  6.281590  2.722650  8.049979
Ni  9.949421  4.523942  9.939018
Ni 11.721257  2.729121  9.901492
Ni  9.922998  8.202331  9.904061
Ni  9.964880  2.721922  8.110821
Ni  0.947279  6.347597  9.900846
Ni  0.945253  8.136919  8.149520
Ni  2.821246  8.124126  9.993620
Ni  4.560285  6.443255  6.446679
Ni  2.770655  6.375587  8.134855
Ni  6.298526  8.161396  9.887522
Ni  9.899290  9.984774 11.669199
Ni 11.815901  6.385489  9.879724
Ni 11.748142  8.164439  8.091090
Ni  8.172102  8.130933  8.094683
Ni  0.974604  9.924957  9.895819
Ni  4.535568 10.057573  9.947059
Ni  2.740454  9.988648  8.126362
Ni  6.331604 11.756920  9.883931
Ni  9.929877  9.964343  8.078262
Ni  8.144934 11.774287  8.036193
Ni  9.933317 11.829644  9.873068
Ni 11.807893  8.251784 11.750084
Ni 11.778491 11.744130  8.140369
Ni  0.872733 13.498234  9.842180
Ni  0.862362  0.922060  8.055658
Ni  2.755967 13.501195  8.100100
Ni  4.558963 13.559728  9.868063
Ni  2.702361 11.777294  6.272875
Ni  4.551056 13.551890  6.323421
Ni  6.352904  0.920657  9.860633
Ni  9.917029 13.638792  8.106730
Ni  6.395149 13.563196  8.015140
Ni  9.940127  0.889601  9.899082
Ni 11.737581 13.554961  9.923936
Ni 11.749732  0.943173  8.154951
Ni  8.152340 13.604456  6.194682
Ni  0.889999  4.544238 11.712943
Ni  2.732127  4.528509 13.554278
Ni  4.537028  2.685266 13.503080
Ni  4.578041  4.518451 11.697897
Ni  6.341362  4.518645 13.481763
Ni  8.176185  2.749139 13.506681
Ni  6.279429  2.616857 11.711703
Ni 11.818611  2.660514 13.518934
Ni 11.776193  4.535412 11.689216
Ni  9.965073  2.696121 11.703011
Ni  0.973153  8.079296 11.744373
Ni  2.760770  8.150847 13.506858
Ni  4.553742  6.359168 13.494139
Ni  6.399624  8.243117 13.604455
Ni  6.287005  6.347527 11.663602
Ni  8.095791  8.145254 11.665206
Ni  8.025267  6.335469  9.858007
Ni  9.892101  8.064179 13.508571
Ni 13.664698  4.517718 13.635460
Ni 11.754209  6.360058 13.521188
Ni  0.967443  9.957527 13.575411
Ni  0.914882 11.774247 11.774229
Ni  2.708550 11.785172 13.542158
Ni  4.554621 10.077471 13.559298
Ni  2.730502  9.975868 11.746355
Ni  6.361032 13.606416 11.718580
Ni  6.374365 10.068900 11.767830
Ni  9.910733 11.834309 13.551085
Ni 11.735641 11.778409 11.732444
Ni  8.161199 11.818374 11.709229
Ni  0.953399 13.605773 13.508612
Ni  0.932835  0.982791 11.735971
Ni  2.745376  0.949129 13.495694
Ni  4.511330 13.586833 13.550405
Ni  2.702543 13.580429 11.712561
Ni  8.180181 13.670254 13.588308
Ni  8.170230  0.927174 11.689628
Ni  9.972815  0.964725 13.522762
Ni 11.751084  0.857732 11.721064
Ni  0.959576  2.657296  2.681888
Ni  2.856313  4.530616  2.751208
Ni  2.728618  2.729345  4.496705
Ni  4.536360  4.530866  0.811697
Ni  2.771297  2.703459  0.856693
Ni  6.312841  2.686241  0.837363
Ni 11.757346  2.690295  2.713925
Ni  9.966147  2.760540  0.910361
Ni  0.942912  6.372163  2.665174
Ni  2.728764  8.195039  2.751255
Ni  4.525657  8.205942  0.845547
Ni  2.759028  6.364899  0.841233
Ni  6.331523  8.156737  2.697917
Ni  6.333516  6.347885  0.845374
Ni  8.137977  6.269346  2.707162
Ni 11.762065  6.339535  2.725770
Ni 11.705153  8.190624  0.832037
Ni  9.890037  6.245836  0.800886
Ni  0.899302 10.060326  2.658258
Ni  0.946887 11.814613  0.846682
Ni  2.736038 11.794647  2.667770
Ni  4.549742 11.806716  0.896457
Ni  2.784440 10.021983  0.862785
Ni  6.318288 11.765619  2.687152
Ni  8.149817  9.900005  2.681355
Ni  8.108784 11.741762  0.866494
Ni  9.957058 11.757708  2.650300
Ni 11.756922  9.992416  2.686511
Ni 11.717712 11.766268  0.874159
Ni  9.878367  9.934193  0.921135
Ni  0.943125  0.912230  0.853227
Ni  2.731048  0.899276  2.667408
Ni  4.531115 13.590670  2.625899
Ni  4.510144  0.885760  0.861087
Ni  2.743813 13.594396  0.822421
Ni  6.321863  0.935208  2.701124
Ni  8.125625 13.555298  2.757818
Ni  6.369815 13.635387  0.946233
Ni  9.980689  0.925854  2.701814
Ni 11.709153 13.570379  2.658619
Ni 11.715585  0.880064  0.888602
Ni  9.897819 13.566941  0.931625
Ni  0.925106  2.704120  6.286017
Ni  0.951619  4.514401  4.460527
Ni  2.673063  4.539918  6.319811
Ni  4.516012  2.713787  6.292542
Ni  6.175917  4.549685  2.713998
Ni  2.725942  0.934269  6.288444
Ni  6.317544  4.590462  6.365186
Ni  8.150555  2.757163  6.279321
Ni  8.109466  2.812786  2.711913
Ni  6.290120  2.762316  4.517865
Ni  9.967536  6.251611  4.499005
Ni 11.829212  2.718564  6.291441
Ni 11.843825  4.518359  4.490082
Ni  9.970627  2.748637  4.471422
Ni  0.907820  6.310027  6.285939
Ni  0.894902  8.172697  4.438073
Ni  4.504775  9.891436  6.254578
Ni  2.710710  6.323835  4.487646
Ni  6.383577  9.945714  8.047991
Ni  8.279994  6.237454  6.382054
Ni  8.178579  8.117018  4.476405
Ni  6.319911  6.364780  4.521523
Ni 11.770793  4.538877  8.135624
Ni 11.837697  8.156903  4.513452
Ni 11.725298  6.343126  6.304628
Ni  0.900144  9.962989  6.301899
Ni  0.888197 11.949483  4.504515
Ni  4.535408 11.678901  4.503939
Ni  4.481841  8.130282  4.528630
Ni  6.385342 11.738893  6.225529
Ni  8.170927  9.971305  6.276632
Ni  6.356323  9.887538  4.496018
Ni 11.793807  9.970941  6.273963
Ni 11.750021 11.760690  4.457599
Ni  9.993757 10.003988  4.481170
Ni  0.961163  0.809851  4.475722
Ni  4.507567  0.977078  4.509144
Ni  6.333792  0.933590  6.217577
Ni  9.973455 13.562068  4.474297
Ni 11.739259 13.569925  6.314898
Ni 11.766738  0.932786  4.443218
%ENDBLOCK POSITIONS_ABS

