#######################################################
#CASTEP cell file: /home/u2093113/Documents/kART/CASTEP/castep.cell
#Created using the Atomic Simulation Environment (ASE)#
#######################################################

%BLOCK LATTICE_CART
14.464828  0.000000  0.000000
 0.000000 14.464828  0.000000
 0.000000  0.000000 14.464828
%ENDBLOCK LATTICE_CART

%BLOCK POSITIONS_ABS
Al 13.584852  2.728154  8.106963
Al 13.597664  6.351862  8.097949
Al 13.553893  9.849326  8.026835
Al 13.432799 13.639937  8.192310
Al 13.508745  2.729941 11.644577
Al 13.507521  6.360214 11.658689
Al 13.742753  9.938501 11.774966
Al 13.643467 13.554735 11.643022
Al 13.464400  2.609403  0.962955
Al 13.403040  6.350802  0.958474
Al 13.557014 10.068556  0.916177
Al 13.585400 13.578218  0.856433
Al 13.622194  2.680964  4.475075
Al 13.602260  6.327415  4.473176
Al 13.596924 10.011954  4.488261
Al 13.413990 13.582140  4.491786
Al 10.116631  0.948341  6.273484
Al  6.176291 13.574336  4.468356
Al  8.146676  0.998615  4.412325
Al  2.537301  0.814550  9.814188
Al  2.944105 13.569595  4.496130
Al  2.570959 10.066444  4.502950
Al  4.590351  0.888750  8.020489
Al  0.986682 13.670588  6.322053
Al 10.035902 11.779962  6.366007
Al  8.154557 11.683070  4.402158
Al  4.533793  8.294551  8.176919
Al  2.627401  8.070549  6.282999
Al 10.109038  4.428187  6.272272
Al  6.440723  8.105098  6.245398
Al  4.514092  4.633919  4.724422
Al  8.233231  0.959516  1.000080
Al  1.023401 13.575377  2.633027
Al  6.316093  9.985345  0.913480
Al  4.498861  9.943310  2.735953
Al 10.083248  8.126858  2.798651
Al  8.173923  8.054913  0.990457
Al  4.516399  6.426709  2.627541
Al  1.086423  8.232248  0.974820
Al 10.088813  4.525083  2.684350
Al  9.974242  8.208523  6.218971
Al  7.994513  6.394197 13.438426
Al  7.972914  4.458027  0.926486
Al  4.530376  2.672329  2.647973
Al  1.101471  4.516435  1.086304
Al  9.902562 13.587786 11.700707
Al 11.662076 13.579970 13.599794
Al  8.023387 13.521369  9.857827
Al  6.367892  0.901199 13.553807
Al  4.536563  0.802493 11.667757
Al 11.557667  9.980222 13.524497
Al  6.408928 11.975316 13.572198
Al  8.281021  9.954931 13.429647
Al  4.564330 11.819559 11.754433
Al 10.057667  6.463987 11.558696
Al  2.777280  6.229659 11.660195
Al  4.649874  8.302024 11.796457
Al  0.985275  6.319047 13.529780
Al 10.137331  4.398893 13.532453
Al  8.017119  4.376056 11.565896
Al  2.752945  2.876148 11.661335
Al  0.973165  2.670169 13.563011
Al  8.073288  0.994542  8.027203
Al 11.634938  9.964609  9.920421
Al  8.116078  9.992715  9.869295
Al  4.611686 11.723501  7.990204
Al  2.668616 11.774773  9.982428
Al  0.948636 11.689751  8.072258
Al  8.028551  4.458047  8.188578
Al  8.001869  4.547782  4.510717
Al  9.995676  6.375304  8.257401
Al  4.703231  6.186397  9.751706
Ni 13.584190  4.543465  9.896877
Ni 13.588235  8.222872  9.932192
Ni 13.564354 11.645145  9.909988
Ni 13.584971  0.935852  9.933886
Ni 11.806978  4.501056  0.874411
Ni 13.644628  8.116974 13.622425
Ni 13.557282 11.781682 13.530210
Ni 13.565404  0.875658 13.516718
Ni 13.604708  4.496477  2.651066
Ni 13.560183  8.196440  2.604999
Ni 13.575980 11.860500  2.670967
Ni 13.595239  0.827347  2.678974
Ni 13.585931  4.527813  6.304529
Ni 13.600458  8.116864  6.286463
Ni 13.590140 11.859248  6.370807
Ni 13.547842  0.869728  6.274219
Ni  0.937217  2.753205  9.892730
Ni  0.935888  4.539179  8.111248
Ni  2.738547  4.535403  9.832225
Ni  4.457004  2.625125  9.900301
Ni  4.490396  4.487256  8.022664
Ni  2.710640  2.692439  8.087778
Ni  6.270677  4.392954  9.880484
Ni  8.156305  2.642265  9.887888
Ni  6.281291  2.718649  8.054197
Ni  9.952081  4.518980  9.938767
Ni 11.719879  2.722931  9.902906
Ni  9.921370  8.202145  9.903717
Ni  9.965680  2.715619  8.110887
Ni  0.947205  6.343797  9.898927
Ni  0.951466  8.131118  8.148097
Ni  2.820994  8.112452  9.992624
Ni  5.428089  6.417235  7.233738
Ni  2.781044  6.378039  8.112937
Ni  6.311000  8.148566  9.895023
Ni  9.899752  9.984712 11.671310
Ni 11.815860  6.383339  9.880697
Ni 11.744964  8.165406  8.091088
Ni  8.166285  8.122496  8.089320
Ni  0.977002  9.921611  9.893342
Ni  4.538762 10.045879  9.943767
Ni  2.750803  9.975897  8.127812
Ni  6.333311 11.753392  9.884827
Ni  9.928410  9.961021  8.077061
Ni  8.145164 11.770526  8.033971
Ni  9.931723 11.827391  9.874683
Ni 11.810245  8.252114 11.750120
Ni 11.777432 11.744111  8.139999
Ni  0.875735 13.495098  9.841477
Ni  0.865702  0.918625  8.057895
Ni  2.761466 13.499276  8.101538
Ni  4.562308 13.554547  9.868794
Ni  2.706433 11.772821  6.275127
Ni  4.551703 13.549514  6.323754
Ni  6.352422  0.915276  9.860943
Ni  9.916073 13.634568  8.104827
Ni  6.393507 13.559667  8.013720
Ni  9.937805  0.884089  9.901485
Ni 11.738073 13.551521  9.924304
Ni 11.749296  0.938439  8.157160
Ni  8.153384 13.600663  6.191732
Ni  0.886784  4.539876 11.716959
Ni  2.729511  4.526058 13.559103
Ni  4.540377  2.683956 13.504186
Ni  4.577013  4.517838 11.709213
Ni  6.343141  4.514870 13.485669
Ni  8.175793  2.746341 13.508829
Ni  6.279969  2.621988 11.706543
Ni 11.819372  2.656647 13.520882
Ni 11.777007  4.531303 11.690425
Ni  9.964776  2.691839 11.703597
Ni  0.968973  8.077713 11.744690
Ni  2.759974  8.148560 13.507036
Ni  4.557226  6.357171 13.497726
Ni  6.402275  8.239786 13.607021
Ni  6.291836  6.344486 11.676464
Ni  8.098825  8.143695 11.672427
Ni  8.048618  6.329762  9.878169
Ni  9.894773  8.063540 13.510318
Ni 13.663351  4.512964 13.639458
Ni 11.756247  6.356921 13.520825
Ni  0.968967  9.953943 13.574893
Ni  0.917682 11.772179 11.773438
Ni  2.710328 11.780965 13.542406
Ni  4.554226 10.074975 13.559916
Ni  2.729821  9.971728 11.744764
Ni  6.360466 13.603811 11.718686
Ni  6.378008 10.059231 11.766068
Ni  9.909704 11.832246 13.553254
Ni 11.736935 11.778560 11.733840
Ni  8.160773 11.815617 11.709740
Ni  0.957759 13.603916 13.509459
Ni  0.936329  0.980350 11.736363
Ni  2.749489  0.946869 13.496703
Ni  4.512413 13.585486 13.551467
Ni  2.708459 13.578581 11.713153
Ni  8.179681 13.668079 13.592543
Ni  8.168810  0.925352 11.692625
Ni  9.972296  0.961340 13.525552
Ni 11.750895  0.853193 11.722636
Ni  0.961723  2.657362  2.684395
Ni  2.855373  4.530373  2.757357
Ni  2.728175  2.732217  4.501110
Ni  4.538725  4.527719  0.815403
Ni  2.775368  2.700790  0.859271
Ni  6.311660  2.682823  0.842222
Ni 11.758980  2.689533  2.715326
Ni  9.967141  2.757953  0.913267
Ni  0.937858  6.369412  2.660440
Ni  2.726083  8.188773  2.749946
Ni  4.527531  8.199994  0.845343
Ni  2.760668  6.363139  0.842034
Ni  6.332156  8.152759  2.694856
Ni  6.334174  6.343646  0.848722
Ni  8.144412  6.265921  2.702782
Ni 11.763914  6.336449  2.729938
Ni 11.705868  8.187692  0.832843
Ni  9.892760  6.241620  0.799388
Ni  0.900297 10.054765  2.660476
Ni  0.949580 11.810085  0.847384
Ni  2.738227 11.790312  2.669624
Ni  4.548169 11.803839  0.897597
Ni  2.785797 10.017068  0.863204
Ni  6.314664 11.762943  2.687785
Ni  8.150781  9.900165  2.681136
Ni  8.109588 11.740356  0.869046
Ni  9.958843 11.753357  2.652538
Ni 11.759461  9.989020  2.687988
Ni 11.718448 11.763655  0.875955
Ni  9.880611  9.929906  0.923653
Ni  0.946188  0.910269  0.855381
Ni  2.734192  0.898474  2.669323
Ni  4.530948 13.588920  2.625707
Ni  4.511270  0.885096  0.863661
Ni  2.745888 13.592367  0.822816
Ni  6.318946  0.933938  2.703933
Ni  8.125556 13.552686  2.758319
Ni  6.369292 13.632026  0.947637
Ni  9.982396  0.924373  2.703379
Ni 11.711468 13.566428  2.659266
Ni 11.716967  0.878401  0.890046
Ni  9.899895 13.566282  0.934628
Ni  0.923373  2.698162  6.290061
Ni  0.948727  4.513759  4.462439
Ni  2.662163  4.533370  6.320150
Ni  4.518057  2.722011  6.293347
Ni  6.177433  4.546987  2.720618
Ni  2.730837  0.934173  6.292236
Ni  6.330790  4.575045  6.353822
Ni  8.155044  2.742796  6.275805
Ni  8.110228  2.809434  2.714576
Ni  6.287787  2.761592  4.518867
Ni  9.970011  6.249535  4.502015
Ni 11.832467  2.716339  6.291666
Ni 11.847628  4.515771  4.493573
Ni  9.972487  2.745783  4.469985
Ni  0.916390  6.309383  6.292673
Ni  0.897353  8.167536  4.440871
Ni  4.508002  9.872719  6.257034
Ni  2.699878  6.322749  4.485987
Ni  6.381560  9.947357  8.050460
Ni  8.273440  6.232739  6.375469
Ni  8.181516  8.118255  4.467126
Ni  6.332718  6.368094  4.504824
Ni 11.770243  4.532518  8.137822
Ni 11.839014  8.154026  4.517503
Ni 11.722969  6.340398  6.307957
Ni  0.905028  9.954703  6.304731
Ni  0.889645 11.946028  4.507420
Ni  4.533033 11.673351  4.507547
Ni  4.484094  8.120933  4.522234
Ni  6.382078 11.734888  6.224381
Ni  8.170688  9.972597  6.272237
Ni  6.353453  9.887986  4.487155
Ni 11.796211  9.967365  6.274686
Ni 11.754742 11.757746  4.458910
Ni  9.995942 10.002355  4.480763
Ni  0.965859  0.807999  4.475874
Ni  4.505859  0.978489  4.512851
Ni  6.331029  0.931376  6.215791
Ni  9.977382 13.557991  4.472313
Ni 11.741431 13.568247  6.314426
Ni 11.768913  0.930178  4.442818
%ENDBLOCK POSITIONS_ABS

