%block lattice_abc 
  14.46482773 14.46482773 14.46482773 #lattice params 
 90.0  90.0  90.0 
     %endblock lattice_abc 
     fix_all_cell : true 
     %BLOCK POSITIONS_ABS 
Al 13.584343  2.733396  8.104124
 Al 13.599149  6.353477  8.094084
 Al 13.553503  9.851291  8.025904
 Al 13.428655 13.641699  8.192347
 Al 13.506484  2.734455 11.643799
 Al 13.503687  6.363293 11.663287
 Al 13.740730  9.939190 11.775638
 Al 13.639996 13.556797 11.641507
 Al 13.461502  2.612175  0.961638
 Al 13.403716  6.353923  0.956627
 Al 13.555264 10.071449  0.915439
 Al 13.581727 13.580717  0.855965
 Al 13.619599  2.683317  4.473972
 Al 13.600435  6.330622  4.468147
 Al 13.592712 10.016273  4.484760
 Al 13.410987 13.584202  4.491600
 Al 10.114177  0.951029  6.275223
 Al  6.179697 13.577394  4.468548
 Al  8.146232  1.004096  4.412785
 Al  2.532043  0.816741  9.813304
 Al  2.941669 13.571357  4.495320
 Al  2.569703 10.071959  4.499744
 Al  4.587783  0.887927  8.019652
 Al  0.982885 13.673309  6.320778
 Al 10.033528 11.782558  6.367998
 Al  8.154879 11.683326  4.401262
 Al  4.519526  8.326881  8.176104
 Al  2.607759  8.080540  6.288799
 Al 10.109015  4.431984  6.272886
 Al  6.451328  8.094777  6.271416
 Al  4.514996  4.594077  4.687200
 Al  8.232790  0.961016  0.996228
 Al  1.019654 13.579446  2.631178
 Al  6.318333  9.987202  0.912888
 Al  4.502624  9.949804  2.735693
 Al 10.078646  8.129927  2.797912
 Al  8.171087  8.056912  0.988098
 Al  4.517757  6.431892  2.624202
 Al  1.088887  8.234301  0.974395
 Al 10.085919  4.526726  2.683268
 Al  9.980011  8.211256  6.219656
 Al  7.990516  6.398948 13.432840
 Al  7.972422  4.461758  0.923040
 Al  4.532337  2.666690  2.637274
 Al  1.101607  4.520640  1.083720
 Al  9.903008 13.590034 11.697978
 Al 11.662531 13.583223 13.597953
 Al  8.023459 13.524493  9.858298
 Al  6.367416  0.901770 13.553176
 Al  4.532044  0.802384 11.669532
 Al 11.555909  9.979411 13.523350
 Al  6.408491 11.979408 13.570113
 Al  8.279522  9.955821 13.426338
 Al  4.560988 11.826374 11.755836
 Al 10.051308  6.463818 11.553046
 Al  2.792914  6.230724 11.639223
 Al  4.649824  8.303062 11.793247
 Al  0.994119  6.321882 13.523029
 Al 10.136328  4.403401 13.531338
 Al  8.015611  4.379710 11.563183
 Al  2.750073  2.877479 11.660478
 Al  0.969582  2.673529 13.563265
 Al  8.073553  1.001398  8.027487
 Al 11.637350  9.964307  9.920528
 Al  8.116485 10.001057  9.870959
 Al  4.611397 11.727963  7.992732
 Al  2.664188 11.778935  9.982959
 Al  0.942545 11.695207  8.073097
 Al  8.012925  4.473304  8.187039
 Al  7.994705  4.551682  4.513965
 Al  9.991701  6.376705  8.257906
 Al  4.761184  6.188332  9.693712
 Ni 13.587031  4.548664  9.897248
 Ni 13.588965  8.222543  9.935453
 Ni 13.563058 11.646085  9.910749
 Ni 13.583907  0.940345  9.932871
 Ni 11.807505  4.504197  0.872385
 Ni 13.646489  8.119049 13.621936
 Ni 13.554484 11.784812 13.530397
 Ni 13.564248  0.878981 13.516721
 Ni 13.605290  4.498148  2.650830
 Ni 13.560388  8.199565  2.600749
 Ni 13.573200 11.864123  2.670059
 Ni 13.593549  0.829622  2.678504
 Ni 13.585865  4.525915  6.298443
 Ni 13.600016  8.122033  6.282159
 Ni 13.588915 11.863832  6.370133
 Ni 13.544481  0.872269  6.273300
 Ni  0.933176  2.756395  9.892101
 Ni  0.935202  4.540729  8.107562
 Ni  2.741562  4.533764  9.831776
 Ni  4.452903  2.614909  9.900532
 Ni  4.481131  4.460822  8.038553
 Ni  2.703822  2.687718  8.086792
 Ni  6.268873  4.369859  9.886575
 Ni  8.160073  2.646267  9.887038
 Ni  6.281590  2.722650  8.049979
 Ni  9.949421  4.523942  9.939018
 Ni 11.721257  2.729121  9.901492
 Ni  9.922998  8.202331  9.904061
 Ni  9.964880  2.721922  8.110821
 Ni  0.947279  6.347597  9.900846
 Ni  0.945253  8.136919  8.149520
 Ni  2.821246  8.124126  9.993620
 Ni  4.560285  6.443255  6.446679
 Ni  2.770655  6.375587  8.134855
 Ni  6.298526  8.161396  9.887522
 Ni  9.899290  9.984774 11.669199
 Ni 11.815901  6.385489  9.879724
 Ni 11.748142  8.164439  8.091090
 Ni  8.172102  8.130933  8.094683
 Ni  0.974604  9.924957  9.895819
 Ni  4.535568 10.057573  9.947059
 Ni  2.740454  9.988648  8.126362
 Ni  6.331604 11.756920  9.883931
 Ni  9.929877  9.964343  8.078262
 Ni  8.144934 11.774287  8.036193
 Ni  9.933317 11.829644  9.873068
 Ni 11.807893  8.251784 11.750084
 Ni 11.778491 11.744130  8.140369
 Ni  0.872733 13.498234  9.842180
 Ni  0.862362  0.922060  8.055658
 Ni  2.755967 13.501195  8.100100
 Ni  4.558963 13.559728  9.868063
 Ni  2.702361 11.777294  6.272875
 Ni  4.551056 13.551890  6.323421
 Ni  6.352904  0.920657  9.860633
 Ni  9.917029 13.638792  8.106730
 Ni  6.395149 13.563196  8.015140
 Ni  9.940127  0.889601  9.899082
 Ni 11.737581 13.554961  9.923936
 Ni 11.749732  0.943173  8.154951
 Ni  8.152340 13.604456  6.194682
 Ni  0.889999  4.544238 11.712943
 Ni  2.732127  4.528509 13.554278
 Ni  4.537028  2.685266 13.503080
 Ni  4.578041  4.518451 11.697897
 Ni  6.341362  4.518645 13.481763
 Ni  8.176185  2.749139 13.506681
 Ni  6.279429  2.616857 11.711703
 Ni 11.818611  2.660514 13.518934
 Ni 11.776193  4.535412 11.689216
 Ni  9.965073  2.696121 11.703011
 Ni  0.973153  8.079296 11.744373
 Ni  2.760770  8.150847 13.506858
 Ni  4.553742  6.359168 13.494139
 Ni  6.399624  8.243117 13.604455
 Ni  6.287005  6.347527 11.663602
 Ni  8.095791  8.145254 11.665206
 Ni  8.025267  6.335469  9.858007
 Ni  9.892101  8.064179 13.508571
 Ni 13.664698  4.517718 13.635460
 Ni 11.754209  6.360058 13.521188
 Ni  0.967443  9.957527 13.575411
 Ni  0.914882 11.774247 11.774229
 Ni  2.708550 11.785172 13.542158
 Ni  4.554621 10.077471 13.559298
 Ni  2.730502  9.975868 11.746355
 Ni  6.361032 13.606416 11.718580
 Ni  6.374365 10.068900 11.767830
 Ni  9.910733 11.834309 13.551085
 Ni 11.735641 11.778409 11.732444
 Ni  8.161199 11.818374 11.709229
 Ni  0.953399 13.605773 13.508612
 Ni  0.932835  0.982791 11.735971
 Ni  2.745376  0.949129 13.495694
 Ni  4.511330 13.586833 13.550405
 Ni  2.702543 13.580429 11.712561
 Ni  8.180181 13.670254 13.588308
 Ni  8.170230  0.927174 11.689628
 Ni  9.972815  0.964725 13.522762
 Ni 11.751084  0.857732 11.721064
 Ni  0.959576  2.657296  2.681888
 Ni  2.856313  4.530616  2.751208
 Ni  2.728618  2.729345  4.496705
 Ni  4.536360  4.530866  0.811697
 Ni  2.771297  2.703459  0.856693
 Ni  6.312841  2.686241  0.837363
 Ni 11.757346  2.690295  2.713925
 Ni  9.966147  2.760540  0.910361
 Ni  0.942912  6.372163  2.665174
 Ni  2.728764  8.195039  2.751255
 Ni  4.525657  8.205942  0.845547
 Ni  2.759028  6.364899  0.841233
 Ni  6.331523  8.156737  2.697917
 Ni  6.333516  6.347885  0.845374
 Ni  8.137977  6.269346  2.707162
 Ni 11.762065  6.339535  2.725770
 Ni 11.705153  8.190624  0.832037
 Ni  9.890037  6.245836  0.800886
 Ni  0.899302 10.060326  2.658258
 Ni  0.946887 11.814613  0.846682
 Ni  2.736038 11.794647  2.667770
 Ni  4.549742 11.806716  0.896457
 Ni  2.784440 10.021983  0.862785
 Ni  6.318288 11.765619  2.687152
 Ni  8.149817  9.900005  2.681355
 Ni  8.108784 11.741762  0.866494
 Ni  9.957058 11.757708  2.650300
 Ni 11.756922  9.992416  2.686511
 Ni 11.717712 11.766268  0.874159
 Ni  9.878367  9.934193  0.921135
 Ni  0.943125  0.912230  0.853227
 Ni  2.731048  0.899276  2.667408
 Ni  4.531115 13.590670  2.625899
 Ni  4.510144  0.885760  0.861087
 Ni  2.743813 13.594396  0.822421
 Ni  6.321863  0.935208  2.701124
 Ni  8.125625 13.555298  2.757818
 Ni  6.369815 13.635387  0.946233
 Ni  9.980689  0.925854  2.701814
 Ni 11.709153 13.570379  2.658619
 Ni 11.715585  0.880064  0.888602
 Ni  9.897819 13.566941  0.931625
 Ni  0.925106  2.704120  6.286017
 Ni  0.951619  4.514401  4.460527
 Ni  2.673063  4.539918  6.319811
 Ni  4.516012  2.713787  6.292542
 Ni  6.175917  4.549685  2.713998
 Ni  2.725942  0.934269  6.288444
 Ni  6.317544  4.590462  6.365186
 Ni  8.150555  2.757163  6.279321
 Ni  8.109466  2.812786  2.711913
 Ni  6.290120  2.762316  4.517865
 Ni  9.967536  6.251611  4.499005
 Ni 11.829212  2.718564  6.291441
 Ni 11.843825  4.518359  4.490082
 Ni  9.970627  2.748637  4.471422
 Ni  0.907820  6.310027  6.285939
 Ni  0.894902  8.172697  4.438073
 Ni  4.504775  9.891436  6.254578
 Ni  2.710710  6.323835  4.487646
 Ni  6.383577  9.945714  8.047991
 Ni  8.279994  6.237454  6.382054
 Ni  8.178579  8.117018  4.476405
 Ni  6.319911  6.364780  4.521523
 Ni 11.770793  4.538877  8.135624
 Ni 11.837697  8.156903  4.513452
 Ni 11.725298  6.343126  6.304628
 Ni  0.900144  9.962989  6.301899
 Ni  0.888197 11.949483  4.504515
 Ni  4.535408 11.678901  4.503939
 Ni  4.481841  8.130282  4.528630
 Ni  6.385342 11.738893  6.225529
 Ni  8.170927  9.971305  6.276632
 Ni  6.356323  9.887538  4.496018
 Ni 11.793807  9.970941  6.273963
 Ni 11.750021 11.760690  4.457599
 Ni  9.993757 10.003988  4.481170
 Ni  0.961163  0.809851  4.475722
 Ni  4.507567  0.977078  4.509144
 Ni  6.333792  0.933590  6.217577
 Ni  9.973455 13.562068  4.474297
 Ni 11.739259 13.569925  6.314898
 Ni 11.766738  0.932786  4.443218
 %ENDBLOCK POSITIONS_ABS
 
%block positions_abs_product 
     ang 
Al 13.585361  2.722912  8.109801
 Al 13.596179  6.350247  8.101814
 Al 13.554282  9.847360  8.027766
 Al 13.436943 13.638176  8.192273
 Al 13.511005  2.725426 11.645355
 Al 13.511355  6.357135 11.654092
 Al 13.744777  9.937812 11.774294
 Al 13.646939 13.552673 11.644538
 Al 13.467299  2.606631  0.964271
 Al 13.402364  6.347681  0.960320
 Al 13.558764 10.065662  0.916915
 Al 13.589073 13.575718  0.856900
 Al 13.624789  2.678612  4.476178
 Al 13.604085  6.324208  4.478204
 Al 13.601137 10.007635  4.491762
 Al 13.416993 13.580078  4.491971
 Al 10.119086  0.945654  6.271744
 Al  6.172885 13.571278  4.468164
 Al  8.147119  0.993134  4.411865
 Al  2.542560  0.812359  9.815072
 Al  2.946541 13.567833  4.496940
 Al  2.572216 10.060929  4.506155
 Al  4.592918  0.889574  8.021325
 Al  0.990478 13.667867  6.323328
 Al 10.038275 11.777366  6.364016
 Al  8.154235 11.682814  4.403054
 Al  4.548060  8.262222  8.177735
 Al  2.647043  8.060557  6.277198
 Al 10.109061  4.424391  6.271659
 Al  6.430118  8.115419  6.219380
 Al  4.513188  4.673761  4.761644
 Al  8.233673  0.958017  1.003931
 Al  1.027148 13.571309  2.634875
 Al  6.313853  9.983488  0.914072
 Al  4.495098  9.936816  2.736212
 Al 10.087850  8.123790  2.799389
 Al  8.176758  8.052914  0.992816
 Al  4.515041  6.421526  2.630880
 Al  1.083959  8.230195  0.975245
 Al 10.091707  4.523441  2.685432
 Al  9.968472  8.205790  6.218286
 Al  7.998510  6.389446 13.444012
 Al  7.973406  4.454297  0.929932
 Al  4.528415  2.677967  2.658672
 Al  1.101336  4.512229  1.088889
 Al  9.902116 13.585538 11.703435
 Al 11.661621 13.576717 13.601635
 Al  8.023315 13.518245  9.857357
 Al  6.368367  0.900629 13.554438
 Al  4.541083  0.802603 11.665982
 Al 11.559425  9.981032 13.525645
 Al  6.409365 11.971225 13.574283
 Al  8.282521  9.954041 13.432956
 Al  4.567671 11.812743 11.753029
 Al 10.064026  6.464156 11.564346
 Al  2.761646  6.228595 11.681168
 Al  4.649924  8.300986 11.799667
 Al  0.976431  6.316212 13.536530
 Al 10.138334  4.394384 13.533568
 Al  8.018627  4.372402 11.568609
 Al  2.755818  2.874816 11.662193
 Al  0.976748  2.666808 13.562758
 Al  8.073022  0.987686  8.026919
 Al 11.632526  9.964912  9.920315
 Al  8.115672  9.984374  9.867631
 Al  4.611976 11.719039  7.987675
 Al  2.673045 11.770611  9.981896
 Al  0.954726 11.684295  8.071419
 Al  8.044178  4.442790  8.190118
 Al  8.009033  4.543882  4.507470
 Al  9.999650  6.373902  8.256897
 Al  4.645278  6.184462  9.809700
 Ni 13.581349  4.538267  9.896505
 Ni 13.587504  8.223202  9.928931
 Ni 13.565651 11.644205  9.909227
 Ni 13.586036  0.931360  9.934902
 Ni 11.806451  4.497915  0.876436
 Ni 13.642767  8.114899 13.622915
 Ni 13.560081 11.778551 13.530023
 Ni 13.566561  0.872334 13.516714
 Ni 13.604125  4.494807  2.651301
 Ni 13.559979  8.193315  2.609249
 Ni 13.578760 11.856877  2.671875
 Ni 13.596929  0.825071  2.679443
 Ni 13.585998  4.529711  6.310614
 Ni 13.600901  8.111694  6.290767
 Ni 13.591366 11.854665  6.371482
 Ni 13.551203  0.867187  6.275138
 Ni  0.941258  2.750016  9.893359
 Ni  0.936573  4.537629  8.114935
 Ni  2.735531  4.537041  9.832673
 Ni  4.461104  2.635342  9.900071
 Ni  4.499662  4.513691  8.006775
 Ni  2.717457  2.697160  8.088765
 Ni  6.272481  4.416049  9.874394
 Ni  8.152537  2.638264  9.888739
 Ni  6.280992  2.714648  8.058415
 Ni  9.954741  4.514018  9.938515
 Ni 11.718500  2.716741  9.904321
 Ni  9.919743  8.201959  9.903374
 Ni  9.966480  2.709315  8.110953
 Ni  0.947131  6.339996  9.897007
 Ni  0.957679  8.125316  8.146673
 Ni  2.820741  8.100778  9.991628
 Ni  6.295893  6.391215  8.020798
 Ni  2.791434  6.380491  8.091020
 Ni  6.323475  8.135736  9.902523
 Ni  9.900215  9.984650 11.673421
 Ni 11.815819  6.381188  9.881670
 Ni 11.741786  8.166373  8.091086
 Ni  8.160468  8.114060  8.083957
 Ni  0.979401  9.918265  9.890865
 Ni  4.541956 10.034185  9.940475
 Ni  2.761152  9.963146  8.129262
 Ni  6.335017 11.749865  9.885724
 Ni  9.926943  9.957699  8.075860
 Ni  8.145393 11.766765  8.031750
 Ni  9.930129 11.825139  9.876298
 Ni 11.812597  8.252444 11.750157
 Ni 11.776372 11.744091  8.139630
 Ni  0.878737 13.491962  9.840774
 Ni  0.869042  0.915191  8.060132
 Ni  2.766964 13.497358  8.102977
 Ni  4.565652 13.549366  9.869524
 Ni  2.710506 11.768348  6.277379
 Ni  4.552350 13.547137  6.324087
 Ni  6.351940  0.909896  9.861254
 Ni  9.915118 13.630345  8.102924
 Ni  6.391864 13.556137  8.012301
 Ni  9.935482  0.878577  9.903888
 Ni 11.738565 13.548080  9.924671
 Ni 11.748861  0.933705  8.159368
 Ni  8.154429 13.596870  6.188781
 Ni  0.883568  4.535513 11.720975
 Ni  2.726895  4.523608 13.563927
 Ni  4.543727  2.682646 13.505292
 Ni  4.575985  4.517224 11.720529
 Ni  6.344920  4.511096 13.489576
 Ni  8.175400  2.743543 13.510977
 Ni  6.280509  2.627119 11.701382
 Ni 11.820133  2.652779 13.522830
 Ni 11.777821  4.527194 11.691634
 Ni  9.964479  2.687558 11.704184
 Ni  0.964792  8.076130 11.745006
 Ni  2.759178  8.146274 13.507214
 Ni  4.560711  6.355173 13.501313
 Ni  6.404927  8.236455 13.609588
 Ni  6.296668  6.341445 11.689325
 Ni  8.101860  8.142136 11.679647
 Ni  8.071970  6.324054  9.898331
 Ni  9.897445  8.062901 13.512065
 Ni 13.662004  4.508210 13.643457
 Ni 11.758285  6.353784 13.520462
 Ni  0.970492  9.950359 13.574376
 Ni  0.920481 11.770110 11.772646
 Ni  2.712106 11.776758 13.542653
 Ni  4.553830 10.072479 13.560535
 Ni  2.729141  9.967588 11.743172
 Ni  6.359900 13.601207 11.718792
 Ni  6.381651 10.049563 11.764306
 Ni  9.908676 11.830182 13.555424
 Ni 11.738230 11.778711 11.735236
 Ni  8.160347 11.812859 11.710251
 Ni  0.962119 13.602058 13.510307
 Ni  0.939823  0.977910 11.736755
 Ni  2.753602  0.944608 13.497713
 Ni  4.513496 13.584139 13.552528
 Ni  2.714375 13.576732 11.713744
 Ni  8.179181 13.665905 13.596779
 Ni  8.167389  0.923529 11.695622
 Ni  9.971777  0.957955 13.528343
 Ni 11.750707  0.848653 11.724209
 Ni  0.963870  2.657427  2.686903
 Ni  2.854433  4.530130  2.763506
 Ni  2.727732  2.735088  4.505515
 Ni  4.541090  4.524571  0.819110
 Ni  2.779440  2.698120  0.861848
 Ni  6.310478  2.679406  0.847082
 Ni 11.760615  2.688770  2.716727
 Ni  9.968134  2.755366  0.916172
 Ni  0.932804  6.366661  2.655705
 Ni  2.723401  8.182508  2.748636
 Ni  4.529405  8.194047  0.845139
 Ni  2.762307  6.361378  0.842834
 Ni  6.332788  8.148782  2.691796
 Ni  6.334831  6.339407  0.852071
 Ni  8.150846  6.262496  2.698403
 Ni 11.765763  6.333364  2.734106
 Ni 11.706584  8.184761  0.833650
 Ni  9.895483  6.237405  0.797890
 Ni  0.901292 10.049204  2.662693
 Ni  0.952273 11.805557  0.848087
 Ni  2.740415 11.785977  2.671479
 Ni  4.546595 11.800961  0.898737
 Ni  2.787153 10.012154  0.863623
 Ni  6.311040 11.760267  2.688417
 Ni  8.151746  9.900324  2.680916
 Ni  8.110391 11.738951  0.871598
 Ni  9.960628 11.749006  2.654776
 Ni 11.762001  9.985624  2.689464
 Ni 11.719184 11.761043  0.877751
 Ni  9.882855  9.925620  0.926171
 Ni  0.949252  0.908307  0.857535
 Ni  2.737335  0.897672  2.671237
 Ni  4.530781 13.587170  2.625515
 Ni  4.512395  0.884432  0.866235
 Ni  2.747963 13.590339  0.823210
 Ni  6.316029  0.932669  2.706742
 Ni  8.125487 13.550074  2.758821
 Ni  6.368769 13.628666  0.949041
 Ni  9.984103  0.922892  2.704945
 Ni 11.713783 13.562478  2.659914
 Ni 11.718350  0.876738  0.891490
 Ni  9.901971 13.565623  0.937631
 Ni  0.921640  2.692204  6.294106
 Ni  0.945836  4.513118  4.464352
 Ni  2.651264  4.526822  6.320489
 Ni  4.520101  2.730235  6.294151
 Ni  6.178949  4.544289  2.727238
 Ni  2.735733  0.934077  6.296028
 Ni  6.344037  4.559628  6.342458
 Ni  8.159533  2.728428  6.272289
 Ni  8.110990  2.806081  2.717238
 Ni  6.285455  2.760868  4.519869
 Ni  9.972485  6.247459  4.505026
 Ni 11.835722  2.714113  6.291891
 Ni 11.851431  4.513184  4.497064
 Ni  9.974347  2.742930  4.468548
 Ni  0.924960  6.308738  6.299406
 Ni  0.899804  8.162375  4.443669
 Ni  4.511228  9.854002  6.259491
 Ni  2.689046  6.321664  4.484329
 Ni  6.379543  9.949000  8.052929
 Ni  8.266886  6.228024  6.368885
 Ni  8.184453  8.119492  4.457847
 Ni  6.345524  6.371407  4.488126
 Ni 11.769693  4.526158  8.140019
 Ni 11.840331  8.151148  4.521554
 Ni 11.720641  6.337670  6.311286
 Ni  0.909913  9.946417  6.307562
 Ni  0.891094 11.942573  4.510325
 Ni  4.530658 11.667801  4.511155
 Ni  4.486347  8.111583  4.515838
 Ni  6.378814 11.730883  6.223234
 Ni  8.170449  9.973889  6.267841
 Ni  6.350584  9.888433  4.478292
 Ni 11.798616  9.963790  6.275409
 Ni 11.759462 11.754801  4.460221
 Ni  9.998126 10.000722  4.480356
 Ni  0.970554  0.806146  4.476026
 Ni  4.504150  0.979901  4.516559
 Ni  6.328265  0.929161  6.214006
 Ni  9.981310 13.553915  4.470329
 Ni 11.743603 13.566570  6.313954
 Ni 11.771088  0.927571  4.442417
%endblock positions_abs_product 
%block positions_abs_intermediate 
     ang 
Al 13.584852  2.728154  8.106963
 Al 13.597664  6.351862  8.097949
 Al 13.553893  9.849326  8.026835
 Al 13.432799 13.639937  8.192310
 Al 13.508745  2.729941 11.644577
 Al 13.507521  6.360214 11.658689
 Al 13.742753  9.938501 11.774966
 Al 13.643467 13.554735 11.643022
 Al 13.464400  2.609403  0.962955
 Al 13.403040  6.350802  0.958474
 Al 13.557014 10.068556  0.916177
 Al 13.585400 13.578218  0.856433
 Al 13.622194  2.680964  4.475075
 Al 13.602260  6.327415  4.473176
 Al 13.596924 10.011954  4.488261
 Al 13.413990 13.582140  4.491786
 Al 10.116631  0.948341  6.273484
 Al  6.176291 13.574336  4.468356
 Al  8.146676  0.998615  4.412325
 Al  2.537301  0.814550  9.814188
 Al  2.944105 13.569595  4.496130
 Al  2.570959 10.066444  4.502950
 Al  4.590351  0.888750  8.020489
 Al  0.986682 13.670588  6.322053
 Al 10.035902 11.779962  6.366007
 Al  8.154557 11.683070  4.402158
 Al  4.533793  8.294551  8.176919
 Al  2.627401  8.070549  6.282999
 Al 10.109038  4.428187  6.272272
 Al  6.440723  8.105098  6.245398
 Al  4.514092  4.633919  4.724422
 Al  8.233231  0.959516  1.000080
 Al  1.023401 13.575377  2.633027
 Al  6.316093  9.985345  0.913480
 Al  4.498861  9.943310  2.735953
 Al 10.083248  8.126858  2.798651
 Al  8.173923  8.054913  0.990457
 Al  4.516399  6.426709  2.627541
 Al  1.086423  8.232248  0.974820
 Al 10.088813  4.525083  2.684350
 Al  9.974242  8.208523  6.218971
 Al  7.994513  6.394197 13.438426
 Al  7.972914  4.458027  0.926486
 Al  4.530376  2.672329  2.647973
 Al  1.101471  4.516435  1.086304
 Al  9.902562 13.587786 11.700707
 Al 11.662076 13.579970 13.599794
 Al  8.023387 13.521369  9.857827
 Al  6.367892  0.901199 13.553807
 Al  4.536563  0.802493 11.667757
 Al 11.557667  9.980222 13.524497
 Al  6.408928 11.975316 13.572198
 Al  8.281021  9.954931 13.429647
 Al  4.564330 11.819559 11.754433
 Al 10.057667  6.463987 11.558696
 Al  2.777280  6.229659 11.660195
 Al  4.649874  8.302024 11.796457
 Al  0.985275  6.319047 13.529780
 Al 10.137331  4.398893 13.532453
 Al  8.017119  4.376056 11.565896
 Al  2.752945  2.876148 11.661335
 Al  0.973165  2.670169 13.563011
 Al  8.073288  0.994542  8.027203
 Al 11.634938  9.964609  9.920421
 Al  8.116078  9.992715  9.869295
 Al  4.611686 11.723501  7.990204
 Al  2.668616 11.774773  9.982428
 Al  0.948636 11.689751  8.072258
 Al  8.028551  4.458047  8.188578
 Al  8.001869  4.547782  4.510717
 Al  9.995676  6.375304  8.257401
 Al  4.703231  6.186397  9.751706
 Ni 13.584190  4.543465  9.896877
 Ni 13.588235  8.222872  9.932192
 Ni 13.564354 11.645145  9.909988
 Ni 13.584971  0.935852  9.933886
 Ni 11.806978  4.501056  0.874411
 Ni 13.644628  8.116974 13.622425
 Ni 13.557282 11.781682 13.530210
 Ni 13.565404  0.875658 13.516718
 Ni 13.604708  4.496477  2.651066
 Ni 13.560183  8.196440  2.604999
 Ni 13.575980 11.860500  2.670967
 Ni 13.595239  0.827347  2.678974
 Ni 13.585931  4.527813  6.304529
 Ni 13.600458  8.116864  6.286463
 Ni 13.590140 11.859248  6.370807
 Ni 13.547842  0.869728  6.274219
 Ni  0.937217  2.753205  9.892730
 Ni  0.935888  4.539179  8.111248
 Ni  2.738547  4.535403  9.832225
 Ni  4.457004  2.625125  9.900301
 Ni  4.490396  4.487256  8.022664
 Ni  2.710640  2.692439  8.087778
 Ni  6.270677  4.392954  9.880484
 Ni  8.156305  2.642265  9.887888
 Ni  6.281291  2.718649  8.054197
 Ni  9.952081  4.518980  9.938767
 Ni 11.719879  2.722931  9.902906
 Ni  9.921370  8.202145  9.903717
 Ni  9.965680  2.715619  8.110887
 Ni  0.947205  6.343797  9.898927
 Ni  0.951466  8.131118  8.148097
 Ni  2.820994  8.112452  9.992624
 Ni  5.428089  6.417235  7.233738
 Ni  2.781044  6.378039  8.112937
 Ni  6.311000  8.148566  9.895023
 Ni  9.899752  9.984712 11.671310
 Ni 11.815860  6.383339  9.880697
 Ni 11.744964  8.165406  8.091088
 Ni  8.166285  8.122496  8.089320
 Ni  0.977002  9.921611  9.893342
 Ni  4.538762 10.045879  9.943767
 Ni  2.750803  9.975897  8.127812
 Ni  6.333311 11.753392  9.884827
 Ni  9.928410  9.961021  8.077061
 Ni  8.145164 11.770526  8.033971
 Ni  9.931723 11.827391  9.874683
 Ni 11.810245  8.252114 11.750120
 Ni 11.777432 11.744111  8.139999
 Ni  0.875735 13.495098  9.841477
 Ni  0.865702  0.918625  8.057895
 Ni  2.761466 13.499276  8.101538
 Ni  4.562308 13.554547  9.868794
 Ni  2.706433 11.772821  6.275127
 Ni  4.551703 13.549514  6.323754
 Ni  6.352422  0.915276  9.860943
 Ni  9.916073 13.634568  8.104827
 Ni  6.393507 13.559667  8.013720
 Ni  9.937805  0.884089  9.901485
 Ni 11.738073 13.551521  9.924304
 Ni 11.749296  0.938439  8.157160
 Ni  8.153384 13.600663  6.191732
 Ni  0.886784  4.539876 11.716959
 Ni  2.729511  4.526058 13.559103
 Ni  4.540377  2.683956 13.504186
 Ni  4.577013  4.517838 11.709213
 Ni  6.343141  4.514870 13.485669
 Ni  8.175793  2.746341 13.508829
 Ni  6.279969  2.621988 11.706543
 Ni 11.819372  2.656647 13.520882
 Ni 11.777007  4.531303 11.690425
 Ni  9.964776  2.691839 11.703597
 Ni  0.968973  8.077713 11.744690
 Ni  2.759974  8.148560 13.507036
 Ni  4.557226  6.357171 13.497726
 Ni  6.402275  8.239786 13.607021
 Ni  6.291836  6.344486 11.676464
 Ni  8.098825  8.143695 11.672427
 Ni  8.048618  6.329762  9.878169
 Ni  9.894773  8.063540 13.510318
 Ni 13.663351  4.512964 13.639458
 Ni 11.756247  6.356921 13.520825
 Ni  0.968967  9.953943 13.574893
 Ni  0.917682 11.772179 11.773438
 Ni  2.710328 11.780965 13.542406
 Ni  4.554226 10.074975 13.559916
 Ni  2.729821  9.971728 11.744764
 Ni  6.360466 13.603811 11.718686
 Ni  6.378008 10.059231 11.766068
 Ni  9.909704 11.832246 13.553254
 Ni 11.736935 11.778560 11.733840
 Ni  8.160773 11.815617 11.709740
 Ni  0.957759 13.603916 13.509459
 Ni  0.936329  0.980350 11.736363
 Ni  2.749489  0.946869 13.496703
 Ni  4.512413 13.585486 13.551467
 Ni  2.708459 13.578581 11.713153
 Ni  8.179681 13.668079 13.592543
 Ni  8.168810  0.925352 11.692625
 Ni  9.972296  0.961340 13.525552
 Ni 11.750895  0.853193 11.722636
 Ni  0.961723  2.657362  2.684395
 Ni  2.855373  4.530373  2.757357
 Ni  2.728175  2.732217  4.501110
 Ni  4.538725  4.527719  0.815403
 Ni  2.775368  2.700790  0.859271
 Ni  6.311660  2.682823  0.842222
 Ni 11.758980  2.689533  2.715326
 Ni  9.967141  2.757953  0.913267
 Ni  0.937858  6.369412  2.660440
 Ni  2.726083  8.188773  2.749946
 Ni  4.527531  8.199994  0.845343
 Ni  2.760668  6.363139  0.842034
 Ni  6.332156  8.152759  2.694856
 Ni  6.334174  6.343646  0.848722
 Ni  8.144412  6.265921  2.702782
 Ni 11.763914  6.336449  2.729938
 Ni 11.705868  8.187692  0.832843
 Ni  9.892760  6.241620  0.799388
 Ni  0.900297 10.054765  2.660476
 Ni  0.949580 11.810085  0.847384
 Ni  2.738227 11.790312  2.669624
 Ni  4.548169 11.803839  0.897597
 Ni  2.785797 10.017068  0.863204
 Ni  6.314664 11.762943  2.687785
 Ni  8.150781  9.900165  2.681136
 Ni  8.109588 11.740356  0.869046
 Ni  9.958843 11.753357  2.652538
 Ni 11.759461  9.989020  2.687988
 Ni 11.718448 11.763655  0.875955
 Ni  9.880611  9.929906  0.923653
 Ni  0.946188  0.910269  0.855381
 Ni  2.734192  0.898474  2.669323
 Ni  4.530948 13.588920  2.625707
 Ni  4.511270  0.885096  0.863661
 Ni  2.745888 13.592367  0.822816
 Ni  6.318946  0.933938  2.703933
 Ni  8.125556 13.552686  2.758319
 Ni  6.369292 13.632026  0.947637
 Ni  9.982396  0.924373  2.703379
 Ni 11.711468 13.566428  2.659266
 Ni 11.716967  0.878401  0.890046
 Ni  9.899895 13.566282  0.934628
 Ni  0.923373  2.698162  6.290061
 Ni  0.948727  4.513759  4.462439
 Ni  2.662163  4.533370  6.320150
 Ni  4.518057  2.722011  6.293347
 Ni  6.177433  4.546987  2.720618
 Ni  2.730837  0.934173  6.292236
 Ni  6.330790  4.575045  6.353822
 Ni  8.155044  2.742796  6.275805
 Ni  8.110228  2.809434  2.714576
 Ni  6.287787  2.761592  4.518867
 Ni  9.970011  6.249535  4.502015
 Ni 11.832467  2.716339  6.291666
 Ni 11.847628  4.515771  4.493573
 Ni  9.972487  2.745783  4.469985
 Ni  0.916390  6.309383  6.292673
 Ni  0.897353  8.167536  4.440871
 Ni  4.508002  9.872719  6.257034
 Ni  2.699878  6.322749  4.485987
 Ni  6.381560  9.947357  8.050460
 Ni  8.273440  6.232739  6.375469
 Ni  8.181516  8.118255  4.467126
 Ni  6.332718  6.368094  4.504824
 Ni 11.770243  4.532518  8.137822
 Ni 11.839014  8.154026  4.517503
 Ni 11.722969  6.340398  6.307957
 Ni  0.905028  9.954703  6.304731
 Ni  0.889645 11.946028  4.507420
 Ni  4.533033 11.673351  4.507547
 Ni  4.484094  8.120933  4.522234
 Ni  6.382078 11.734888  6.224381
 Ni  8.170688  9.972597  6.272237
 Ni  6.353453  9.887986  4.487155
 Ni 11.796211  9.967365  6.274686
 Ni 11.754742 11.757746  4.458910
 Ni  9.995942 10.002355  4.480763
 Ni  0.965859  0.807999  4.475874
 Ni  4.505859  0.978489  4.512851
 Ni  6.331029  0.931376  6.215791
 Ni  9.977382 13.557991  4.472313
 Ni 11.741431 13.568247  6.314426
 Ni 11.768913  0.930178  4.442818
%endblock positions_abs_intermediate 
     kpoint_mp_grid 1 1 1 
     fix_com : false