#######################################################
#CASTEP cell file: /home/u2093113/Documents/kART/barriers/CASTEP/castep.cell
#Created using the Atomic Simulation Environment (ASE)#
#######################################################

%BLOCK LATTICE_CART
14.464828  0.000000  0.000000
 0.000000 14.464828  0.000000
 0.000000  0.000000 14.464828
%ENDBLOCK LATTICE_CART

%BLOCK POSITIONS_ABS
Ni  8.212069  6.243549 13.561428
Ni 10.036016  4.453254 13.568196
Ni 10.027754  6.269961 11.765285
Al  8.247199  4.454498 11.765988
Ni 11.827259  6.270697 13.568109
Ni 13.633959  4.468769 13.562182
Ni 13.632523  6.276521 11.758429
Al 11.834301  4.467594 11.756902
Ni  8.150709  9.933404 13.616392
Ni 10.017586  8.082307 13.567161
Ni 10.018686  9.875455 11.771788
Al  8.229868  8.080971 11.779198
Ni 11.836514  9.881992 13.563977
Ni 13.630220  8.077843 13.565071
Ni 13.636635  9.879433 11.757011
Al 11.826441  8.076221 11.763511
Ni  8.215583 13.484086 13.537549
Ni 10.047905 11.695721 13.551818
Ni 10.053707 13.508701 11.743386
Al  8.301480 11.697160 11.711897
Ni 11.852657 13.501946 13.551569
Ni 13.637517 11.687890 13.558369
Ni 13.644193 13.495968 11.750966
Al 11.838746 11.685006 11.751940
Ni  8.219377  2.651815 13.561692
Ni 10.053474  0.842901 13.545837
Ni 10.037782  2.655887 11.752080
Al  8.260871  0.847535 11.761457
Ni 11.844262  2.655217 13.557568
Ni 13.643110  0.846071 13.556058
Ni 13.642382  2.661860 11.754074
Al 11.849441  0.850223 11.747284
Ni  8.194533  6.248180  2.769496
Ni 10.042989  4.438068  2.707590
Ni 10.028656  6.244236  0.920178
Al  8.236742  4.436791  0.915612
Ni 11.835351  6.269193  2.713887
Ni 13.634538  4.466444  2.717671
Ni 13.628788  6.274745  0.907584
Al 11.840594  4.456985  0.906057
Ni  8.156490  9.941127  2.654885
Ni 10.034448  8.089457  2.707232
Ni 10.032517  9.890861  0.904575
Al  8.296544  8.013533  0.907848
Ni 11.842415  9.892069  2.709235
Ni 13.627708  8.081170  2.716058
Ni 13.635184  9.884138  0.905227
Al 11.825704  8.076066  0.905261
Ni  8.208793 13.525255  2.749198
Ni 10.049150 11.710923  2.721659
Ni 10.071641 13.521502  0.902848
Al  8.337234 11.766474  0.912381
Ni 11.860426 13.503153  2.718934
Ni 13.641875 11.690898  2.716536
Ni 13.642570 13.498564  0.902591
Al 11.845850 11.696493  0.902685
Ni  8.221705  2.590420  2.722948
Ni 10.052436  0.832783  2.720341
Ni 10.047463  2.643695  0.904480
Al  8.291133  0.835630  0.857494
Ni 11.854803  2.644771  2.711165
Ni 13.650455  0.842917  2.717549
Ni 13.641770  2.655591  0.903371
Al 11.855209  0.846685  0.900911
Ni  8.251720  6.272050  6.287360
Ni 10.066911  4.460598  6.344868
Ni 10.045833  6.269717  4.515926
Al  8.338496  4.376297  4.521178
Ni 11.836288  6.279583  6.337486
Ni 13.637861  4.473790  6.338456
Ni 13.630873  6.278510  4.526976
Al 11.844551  4.463396  4.525274
Ni  8.220022  9.899388  6.352832
Ni 10.039558  8.089561  6.338886
Ni 10.050651  9.905718  4.514296
Al  8.314322  8.157284  4.503813
Ni 11.843176  9.883114  6.341132
Ni 13.633455  8.081045  6.335597
Ni 13.633775  9.884203  4.527575
Al 11.830385  8.084337  4.522031
Ni  8.248949 13.490394  6.362487
Ni 10.061629 11.688810  6.360940
Ni 10.077331 13.499050  4.544088
Al  8.313847 11.699064  4.565356
Ni 11.864522 13.492997  6.352757
Ni 13.646627 11.685180  6.341507
Ni 13.650269 13.495883  4.532882
Al 11.852030 11.693362  4.532045
Ni  8.263652  2.644593  6.356414
Ni 10.089118  0.837787  6.369637
Ni 10.092816  2.632864  4.533774
Al  8.343874  0.841030  4.611600
Ni 11.862930  2.656371  6.352304
Ni 13.652006  0.843315  6.344161
Ni 13.638731  2.656373  4.530087
Al 11.864581  0.837142  4.535000
Ni  8.210966  6.275499  9.970172
Ni 10.029590  4.466834  9.957114
Ni 10.022663  6.280627  8.143721
Al  8.279253  4.465734  8.141902
Ni 11.829907  6.276348  9.954472
Ni 13.641006  4.474086  9.951421
Ni 13.637170  6.279209  8.144883
Al 11.839705  4.474967  8.153847
Ni  8.206515  9.883383  9.949518
Ni 10.021233  8.076886  9.961648
Ni 10.036535  9.877992  8.152593
Al  8.241214  8.077455  8.151038
Ni 11.834851  9.874365  9.958576
Ni 13.636229  8.077675  9.953716
Ni 13.640399  9.878043  8.147893
Al 11.832148  8.076867  8.149928
Ni  8.224085 13.508256  9.937048
Ni 10.049998 11.686414  9.941979
Ni 10.058483 13.494779  8.157074
Al  8.247041 11.687793  8.152850
Ni 11.853242 13.499597  9.951019
Ni 13.642304 11.683695  9.953063
Ni 13.653868 13.494732  8.150081
Al 11.852465 11.682676  8.154214
Ni  8.218206  2.644221  9.944546
Ni 10.043711  0.848163  9.948293
Ni 10.056313  2.656563  8.158663
Al  8.272735  0.840224  8.134624
Ni 11.847829  2.662033  9.954332
Ni 13.652258  0.846933  9.951083
Ni 13.649954  2.663590  8.149256
Al 11.861996  0.845654  8.160028
Ni  1.011006  6.228828 13.481900
Ni  2.757912  4.420017 13.501060
Al  4.755169  2.645362  9.885527
Ni  0.926127  4.414872 11.683234
Ni  4.505463  6.248873 13.530575
Ni  6.401209  4.434957 13.567026
Ni  4.581069  8.059241 11.737604
Ni  4.626461  4.410264 11.728807
Al  0.810960  0.829802  8.068017
Ni  0.945954  8.111585 11.646594
Ni  0.944320  9.945678 13.537610
Al  2.783603  2.746756  8.030663
Ni  4.554262  9.892359 13.510349
Ni  6.392160  8.065414 13.555056
Ni  6.418431  9.909932 11.782512
Ni  2.757670  9.921338 11.710726
Ni  0.962414 13.511436 13.530942
Ni  4.583220 11.737666 11.737306
Ni  2.758267 13.538618 11.680394
Al  4.655905 13.526354  9.963612
Ni  4.543033 13.572220 13.527712
Ni  4.603779 11.717349  0.875436
Ni  6.427224 13.527968 11.747262
Al  2.788900 13.445445  8.019007
Ni  0.944523  2.610559 13.501198
Ni  4.570891  0.893717 11.707861
Ni  0.968388  0.836785 11.653637
Ni  4.548932  2.608562 13.528907
Ni  6.405198  0.834696 13.565917
Ni  6.433724  2.642121 11.760990
Ni  2.795844  0.878890  9.808873
Ni  0.939632  6.224875  2.728635
Ni  2.780992  4.444862  2.732876
Al  4.606582  9.940204  9.988426
Ni  0.904934  4.388884  0.885887
Al  1.082030  9.944845  9.815697
Ni  6.449466  4.443145  2.735069
Ni  6.416974  6.259184  0.877253
Ni  4.608078  4.428283  0.876764
Ni  1.025319  9.890571  2.749164
Ni  2.764521  7.985220  2.663940
Ni  2.768523  9.877868  0.885828
Ni  0.949047  8.072677  0.878235
Ni  4.560913  9.813093  2.735077
Ni  6.424265  8.044993  2.711262
Al  2.862384  2.733680  4.663833
Ni  4.520234  7.998995  0.848436
Ni  0.970705  0.874648  0.911500
Al  0.964048 11.657422  4.560576
Ni  1.017264 11.772480  0.957702
Ni  4.555402 13.565652  2.747042
Ni  6.414120 13.541897  0.928672
Ni  2.773459 13.561031  0.912821
Al  4.703084  9.915626  6.335713
Al  2.784786  9.653928  4.535948
Ni  2.819587  0.933261  2.762400
Ni  2.755061  2.663924  0.878756
Ni  4.591257  2.679952  2.752512
Ni  6.411577  2.613414  0.925800
Al  6.368555  6.259650  4.633909
Al  4.744810  7.941322  8.116164
Al  2.792620  6.260689  4.503121
Al  0.886806  6.287757  6.344931
Ni  0.926946  4.471162  4.553141
Ni  6.484257  4.456402  6.316443
Ni  4.638133  4.533428  4.559371
Al  4.594109  0.889097  0.900443
Al  6.360338  0.840925  2.826895
Al  2.697019  0.790558 13.521963
Ni  0.949705  9.821805  6.344119
Al  0.981545  2.673483  2.765946
Ni  0.910105  8.037579  4.547159
Ni  2.838807  7.932234  6.396924
Ni  6.466445  8.080861  6.314513
Ni  6.429363  9.891152  4.488187
Ni  4.631751  7.984738  4.566193
Al  6.264753 11.771250  2.747727
Ni  0.938535 13.478981  6.307691
Ni  2.788692 11.609113  6.276293
Ni  2.769425 13.498717  4.554045
Al  1.027993 13.674270  2.771340
Ni  4.602353 13.477345  6.332646
Ni  6.448500 11.702129  6.304272
Ni  6.424265 13.502318  4.552561
Ni  4.565674 11.654208  4.530749
Al  2.909658 11.690425  2.631873
Ni  0.936039  2.685896  6.318065
Ni  2.764549  0.859188  6.376989
Al  6.245619  9.765141  0.903385
Ni  0.987976  0.901545  4.566966
Ni  4.631471  2.689227  6.367172
Ni  6.453407  0.837006  6.315996
Ni  6.430411  2.657302  4.553538
Ni  4.596656  0.868767  4.593188
Ni  0.954527  6.237768  9.894206
Ni  2.813404  4.381182  9.898706
Ni  2.797205  4.587286  6.338370
Ni  0.902078  4.457697  8.083249
Ni  4.633869  6.241966  9.940221
Ni  6.471687  4.461309  9.948356
Ni  6.473333  6.244174  8.099532
Ni  4.675533  4.509697  8.101875
Al  4.664149  6.226011  2.610677
Ni  0.979370 11.726417 11.683509
Ni  2.817227  8.066442  9.913449
Ni  2.886047  9.832846  8.091193
Ni  0.936118  8.062926  8.133623
Al  2.657326  6.146377  0.872113
Ni  6.394772  6.249705 11.784573
Ni  6.406218  9.878977  8.160144
Ni  6.419651  8.081719  9.985626
Al  2.707237  2.691133 11.665839
Ni  0.989955 13.483095  9.836387
Ni  2.826458 11.730085  9.888983
Al  6.273106 11.788105 13.534454
Ni  0.962400 11.676639  8.064859
Al  2.781590 11.730334 13.556275
Ni  6.427897 11.707381  9.970204
Ni  6.431612 13.505719  8.128970
Ni  4.646469 11.705270  8.130148
Al  2.768055  6.165216 11.634898
Al  2.785936  6.167354  8.230136
Ni  0.956201  2.638484  9.839072
Al  2.715651  8.178472 13.498124
Ni  4.635268  0.837450  8.109718
Ni  6.453136  0.836004  9.938788
Ni  6.458893  2.656250  8.108929
%ENDBLOCK POSITIONS_ABS

FIX_ALL_CELL: TRUE
KPOINT_MP_GRID: 1 1 1
