#######################################################
#CASTEP cell file: /home/u2093113/CASTEP/castep.cell
#Created using the Atomic Simulation Environment (ASE)#
#######################################################

%BLOCK LATTICE_CART
14.464828  0.000000  0.000000
 0.000000 14.464828  0.000000
 0.000000  0.000000 14.464828
%ENDBLOCK LATTICE_CART

%BLOCK POSITIONS_ABS
Al  8.222327  4.457006  8.137793
Al 11.836015  4.463347  8.122057
Al  8.221570  8.095617  8.120692
Al 11.852005  8.089687  8.132232
Al  8.304054 11.713913  8.038535
Al 11.871299 11.700867  8.098202
Al  8.225891  0.842674  8.126506
Al 11.848091  0.855379  8.101556
Al  8.216498  4.438520 11.726739
Al 11.834343  4.479345 11.712780
Al  8.217716  8.115391 11.724993
Al 11.854406  8.082458 11.722744
Al  8.378929 11.738381 11.748130
Al 11.871936 11.691409 11.732453
Al  8.287812  0.816064 11.661961
Al 11.867289  0.857945 11.709038
Al  8.240273  4.430143  0.867582
Al 11.828150  4.484362  0.874347
Al  8.243236  8.103196  0.878497
Al 11.832127  8.070299  0.874054
Al  8.304747 11.720907  0.952638
Al 11.897512 11.689599  0.893031
Al  8.337852  0.836318  0.981451
Al 11.840813  0.860535  0.891041
Al  8.237848  4.465100  4.516637
Al 11.810512  4.478133  4.515126
Al  8.248972  8.078576  4.510967
Al 11.836624  8.080761  4.504419
Al  8.236792 11.710364  4.499146
Al 11.846272 11.683108  4.519120
Al  8.227133  0.850031  4.490371
Al 11.868538  0.858893  4.523027
Al  4.768028  2.664614  6.292957
Al  0.822879  0.872842  4.492812
Al  2.801887  2.754644  4.385604
Al  4.665404 13.531232  6.370916
Al  2.776152 13.416671  4.408232
Al  4.735044  8.073890  8.098582
Al  0.979247  9.882953  6.311519
Al  2.847098  2.709103  1.011874
Al  0.858673 11.670909  1.015292
Al  4.683471  9.819434  2.823760
Al  2.792621  9.656650  0.890962
Al  4.782092  6.283023  2.705070
Al  4.608440  9.950182  6.192019
Al  2.733175  6.276906  0.795775
Al  0.814432  6.271048  2.726061
Al  4.551102  0.842239 11.732993
Al  6.360589  0.838729 13.657070
Al  2.650213  0.776229  9.888930
Al  0.909805  2.669711 13.481460
Al  6.257684 11.737544 13.561519
Al  0.895820 13.651052 13.493298
Al  2.872016 11.699153 13.463347
Al  4.742850  8.233057 11.718190
Al  4.818697  6.185717 13.561138
Al  2.684061  6.128932 11.724129
Al  2.707367  2.726808  8.086799
Al  6.285583 11.724746  9.903315
Al  2.764886 11.711277  9.904245
Al  2.747407  6.125542  8.025221
Al  2.859365  6.279316  4.715578
Al  2.627134  8.208531  9.898157
Ni  8.216523  6.263357  9.924607
Ni 10.031007  4.461423  9.926860
Ni 10.034117  6.280577  8.134568
Ni 11.850253  6.281756  9.921945
Ni 13.648493  4.472886  9.906086
Ni 13.639566  6.287410  8.116036
Ni  8.233788  9.977454  9.910791
Ni 10.028523  8.095092  9.927352
Ni 10.057930  9.891937  8.117230
Ni 11.862868  9.885160  9.934320
Ni 13.680609  8.082688  9.926135
Ni 13.657218  9.897057  8.122264
Ni  8.233090 13.445342  9.925607
Ni 10.084556 11.705978  9.903525
Ni 10.039872 13.514010  8.103035
Ni 11.858273 13.518061  9.893778
Ni 13.644092 11.703218  9.916338
Ni 13.665100 13.503567  8.091412
Ni  8.212533  2.651393  9.938999
Ni 10.056135  0.843764  9.901496
Ni 10.018198  2.654764  8.115180
Ni 11.841230  2.660996  9.896690
Ni 13.672898  0.859471  9.886253
Ni 13.654436  2.656295  8.104963
Ni  6.513996  6.257192  0.885644
Ni 10.020688  4.467485 13.520390
Ni 10.019131  6.282060 11.718601
Ni 11.825652  6.283771 13.510886
Ni 13.643738  4.491167 13.521581
Ni 13.659814  6.271522 11.712479
Ni  8.237392  9.984854 13.553639
Ni 10.017766  8.088930 13.529008
Ni 10.051923  9.894787 11.734355
Ni 11.855923  9.872706 13.536250
Ni 13.660087  8.078369 13.532910
Ni 13.677383  9.891720 11.742928
Ni  8.235042 13.520147 13.563395
Ni 10.092543 11.715065 13.564792
Ni 10.086692 13.517838 11.731414
Ni 11.885879 13.498389 13.541994
Ni 13.698045 11.686575 13.544103
Ni 13.645391 13.517033 11.693658
Ni  8.235321  2.559768 13.541532
Ni 10.081014  0.836764 13.537318
Ni 10.043839  2.647410 11.726146
Ni 11.843445  2.693609 13.528312
Ni 13.601905  0.892402 13.552480
Ni 13.614641  2.666835 11.680886
Ni  8.235539  6.260735  2.714050
Ni 10.033113  4.469322  2.692073
Ni 10.012453  6.272816  0.871978
Ni 11.841925  6.275125  2.689519
Ni 13.620919  4.447114  2.697173
Ni 13.615457  6.267814  0.842672
Ni  8.235104  9.905713  2.684440
Ni 10.029199  8.079319  2.689739
Ni 10.052600  9.893813  0.883460
Ni 11.831745  9.879048  2.692565
Ni 13.625974  8.097315  2.694423
Ni 13.650636  9.845831  0.884116
Ni  8.241547 13.507451  2.702672
Ni 10.068913 11.698524  2.714033
Ni 10.079643 13.502839  0.897028
Ni 11.856310 13.506918  2.710440
Ni 13.626817 11.673339  2.746763
Ni 13.659902 13.533445  0.906755
Ni  8.247520  2.652784  2.688989
Ni 10.075147  0.851610  2.728877
Ni 10.055652  2.662865  0.876805
Ni 11.826277  2.668599  2.701889
Ni 13.626536  0.878251  2.673122
Ni 13.627184  2.681044  0.899197
Ni  8.233699  6.282232  6.340419
Ni 10.020840  4.466953  6.329725
Ni 10.037255  6.277495  4.512594
Ni 11.820591  6.268357  6.338678
Ni 13.643102  4.478855  6.317406
Ni 13.603578  6.275637  4.550324
Ni  8.236726  9.882407  6.324052
Ni 10.043969  8.085448  6.322800
Ni 10.034037  9.883903  4.504202
Ni 11.857433  9.883856  6.308530
Ni 13.635489  8.068060  6.310603
Ni 13.648813  9.862409  4.490759
Ni  8.224100 13.518028  6.291743
Ni 10.056540 11.697358  6.290164
Ni 10.048404 13.511538  4.506549
Ni 11.837713 13.512236  6.309471
Ni 13.665787 11.711851  6.287202
Ni 13.636435 13.479918  4.501289
Ni  8.203545  2.660495  6.320939
Ni 10.026034  0.855983  6.306467
Ni 10.028302  2.662677  4.515553
Ni 11.834542  2.671202  6.322487
Ni 13.633547  0.846837  6.327843
Ni 13.605719  2.712263  4.509907
Ni  0.992855  6.271023  9.897706
Ni  2.799403  4.442854  9.915383
Ni  0.931498  4.468465  8.096690
Ni  4.504476  6.369412  9.928027
Ni  6.362704  4.457916  9.940112
Ni  4.596513  9.866054  9.898103
Ni  4.634013  4.441519  8.127126
Ni  0.962358  8.066002  8.097738
Ni  0.934638  9.936241  9.908129
Ni  4.551179 11.717090 11.702789
Ni  6.454467  8.123553  9.913342
Ni  6.409878  9.941464  8.086686
Ni  2.811043  9.904089  8.090988
Ni  0.937738 13.478759  9.913669
Ni  4.557673 11.706061  8.079720
Ni  2.763988 13.516325  8.063786
Ni  4.569416 13.559631  9.896666
Ni  6.468468 10.016120 11.729691
Ni  6.423852 13.496689  8.137182
Ni  0.969648  2.671337  9.895619
Ni  4.571403  0.894627  8.119413
Ni  0.991379  0.851721  8.055567
Ni  4.576195  2.618223  9.917379
Ni  6.403388  0.817330  9.906189
Ni  6.412610  2.642430  8.170036
Ni  2.784212  0.893413  6.228691
Ni  0.947928  6.250712 13.515134
Ni  2.810202  4.436105 13.554600
Ni  0.939140  4.434361 11.696491
Ni  6.447789  4.371753 13.529749
Ni  6.391341  6.273810 11.680852
Ni  4.596590  4.435390 11.718774
Ni  1.043782  9.903062 13.570973
Ni  2.869503  7.954589 13.438529
Ni  2.770702  9.876609 11.729634
Ni  0.982789  8.071967 11.744653
Ni  4.594424  9.876349 13.573323
Ni  8.205742  6.272860 13.501947
Ni  6.437517  8.138592 13.558452
Ni  0.932364  0.886599 11.696755
Ni  0.967504 11.704494 11.751236
Ni  4.556014 13.563962 13.579076
Ni  6.394638 13.515121 11.746592
Ni  2.753557 13.533481 11.736991
Ni  2.749750  0.923828 13.599449
Ni  2.783137  2.653474 11.694506
Ni  4.610741  2.662463 13.541091
Ni  6.395724  2.576380 11.739457
Ni  0.958458  4.464824  0.879969
Ni  6.444661  4.435858  2.700854
Ni  4.648640  4.490017  0.914543
Ni  0.988180  9.807769  2.697404
Ni  0.949832  8.028536  0.862025
Ni  2.794768  7.904768  2.751720
Ni  6.466243  8.086795  2.700111
Ni  6.416262  9.931836  0.884220
Ni  4.663379  8.048398  0.900069
Ni  0.950047 13.524909  2.711089
Ni  2.769444 11.603981  2.655087
Ni  2.693355 13.470379  0.851649
Ni  4.584528 13.497052  2.656734
Ni  6.399851 11.715000  2.701987
Ni  6.398538 13.486949  0.913543
Ni  4.522961 11.669134  0.948142
Ni  0.949166  2.720554  2.716350
Ni  2.748357  0.840681  2.758930
Ni  0.974027  0.918153  0.945336
Ni  4.643945  2.676534  2.712663
Ni  6.393029  0.839798  2.684203
Ni  6.409039  2.628778  0.905436
Ni  4.548816  0.842813  0.944153
Ni  0.952240  6.278385  6.314899
Ni  2.815272  4.364342  6.275874
Ni  2.801151  4.678160  2.715212
Ni  0.961482  4.501345  4.519806
Ni  4.653636  7.134946  5.452117
Ni  6.426187  4.508652  6.323783
Ni  6.448918  6.276502  4.557824
Ni  4.673925  4.496146  4.510382
Ni  0.970738 11.722102  8.093381
Ni  2.845899  8.087436  6.368372
Ni  2.778997  9.848246  4.476531
Ni  0.981643  8.048205  4.521035
Ni  6.417502  6.249573  8.145280
Ni  6.481859  9.892680  4.516786
Ni  6.400513  8.071605  6.287113
Ni  0.990527 13.509130  6.261195
Ni  2.775176 11.725324  6.278776
Ni  0.976783 11.656859  4.460375
Ni  6.425540 11.709810  6.288169
Ni  6.399903 13.510010  4.463692
Ni  4.624066 11.735366  4.474252
Ni  0.938760  2.667566  6.268899
Ni  4.617712  0.834788  4.476015
Ni  6.430909  0.836846  6.300407
Ni  6.449141  2.652857  4.465036
%ENDBLOCK POSITIONS_ABS

