#######################################################
#CASTEP cell file: /home/u2093113/CASTEP/castep.cell
#Created using the Atomic Simulation Environment (ASE)#
#######################################################

%BLOCK LATTICE_CART
14.464828  0.000000  0.000000
 0.000000 14.464828  0.000000
 0.000000  0.000000 14.464828
%ENDBLOCK LATTICE_CART

%BLOCK POSITIONS_ABS
Al  8.220031  4.457173  8.135546
Al 11.837075  4.463913  8.121145
Al  8.228518  8.094589  8.126590
Al 11.854074  8.087246  8.129644
Al  8.306504 11.713822  8.041573
Al 11.872532 11.697938  8.098056
Al  8.227638  0.843574  8.128157
Al 11.846901  0.855241  8.102570
Al  8.217497  4.439023 11.725719
Al 11.834982  4.480150 11.713179
Al  8.218580  8.112430 11.723138
Al 11.856764  8.079370 11.723576
Al  8.381984 11.736360 11.748878
Al 11.873258 11.688310 11.733591
Al  8.290116  0.816752 11.661699
Al 11.867365  0.858163 11.709872
Al  8.240687  4.429164  0.867184
Al 11.828876  4.485366  0.876032
Al  8.242209  8.101561  0.879697
Al 11.834240  8.067457  0.877706
Al  8.306108 11.719481  0.951548
Al 11.898888 11.685653  0.894982
Al  8.340042  0.835828  0.980138
Al 11.841012  0.860079  0.891636
Al  8.238521  4.462070  4.518184
Al 11.811252  4.479415  4.515542
Al  8.248331  8.078660  4.509825
Al 11.837381  8.077997  4.505758
Al  8.238353 11.710294  4.499410
Al 11.847196 11.679489  4.519575
Al  8.230552  0.849314  4.491211
Al 11.867970  0.858144  4.522854
Al  4.767799  2.663588  6.295683
Al  0.820446  0.870035  4.492930
Al  2.804536  2.745261  4.386106
Al  4.665237 13.533241  6.373819
Al  2.775191 13.417989  4.409464
Al  4.733831  8.067173  8.096315
Al  0.985466  9.883381  6.311768
Al  2.847009  2.704993  1.010341
Al  0.858648 11.669547  1.015062
Al  4.689349  9.856877  2.795467
Al  2.790262  9.655391  0.886023
Al  4.780235  6.263755  2.700498
Al  4.609742  9.977482  6.219646
Al  2.735053  6.272281  0.798039
Al  0.826752  6.267901  2.735073
Al  4.552320  0.844592 11.731935
Al  6.363004  0.838398 13.655109
Al  2.648797  0.774722  9.892339
Al  0.908560  2.669599 13.481652
Al  6.258846 11.737209 13.559265
Al  0.894470 13.649810 13.493174
Al  2.871308 11.698033 13.460832
Al  4.742808  8.229934 11.715958
Al  4.817927  6.182640 13.558455
Al  2.685633  6.126607 11.721115
Al  2.710432  2.720571  8.090725
Al  6.288448 11.724625  9.906783
Al  2.763209 11.712107  9.907768
Al  2.759784  6.118432  8.011970
Al  2.892514  6.256870  4.743554
Al  2.628476  8.204074  9.894907
Ni  8.213308  6.261071  9.920576
Ni 10.030938  4.462550  9.925520
Ni 10.033936  6.278949  8.131655
Ni 11.852609  6.280915  9.919806
Ni 13.649543  4.472810  9.905527
Ni 13.645317  6.285197  8.112877
Ni  8.235833  9.975331  9.912821
Ni 10.031272  8.092121  9.927083
Ni 10.058514  9.889872  8.116432
Ni 11.864825  9.881342  9.933126
Ni 13.684769  8.079829  9.922780
Ni 13.660394  9.893936  8.120702
Ni  8.236084 13.444896  9.927276
Ni 10.086860 11.703521  9.904295
Ni 10.041458 13.513217  8.104373
Ni 11.858479 13.516696  9.894659
Ni 13.643584 11.700025  9.917069
Ni 13.663241 13.502114  8.092845
Ni  8.213047  2.653367  9.938023
Ni 10.057178  0.844307  9.901985
Ni 10.017815  2.656549  8.114635
Ni 11.840877  2.662178  9.896643
Ni 13.671401  0.859231  9.887510
Ni 13.652554  2.655211  8.105633
Ni  6.511854  6.255421  0.884285
Ni 10.021403  4.468125 13.521059
Ni 10.019211  6.281289 11.717257
Ni 11.826527  6.283583 13.513178
Ni 13.644527  4.491556 13.522770
Ni 13.661509  6.270840 11.712314
Ni  8.240250  9.982071 13.551886
Ni 10.018212  8.086488 13.530423
Ni 10.055584  9.891137 11.734598
Ni 11.858129  9.868364 13.538996
Ni 13.664587  8.075309 13.536670
Ni 13.677950  9.887372 11.743101
Ni  8.237591 13.518948 13.562353
Ni 10.094775 11.712121 13.565604
Ni 10.088681 13.516560 11.732019
Ni 11.886482 13.496422 13.542993
Ni 13.698096 11.683170 13.545481
Ni 13.644244 13.515624 11.694801
Ni  8.237396  2.560322 13.540855
Ni 10.082500  0.836420 13.537498
Ni 10.044746  2.648700 11.726081
Ni 11.843874  2.694507 13.529252
Ni 13.601065  0.891963 13.553323
Ni 13.614268  2.667198 11.680928
Ni  8.228574  6.260372  2.716517
Ni 10.031818  4.470472  2.693372
Ni 10.010374  6.272196  0.875364
Ni 11.843359  6.274447  2.692181
Ni 13.624338  4.447771  2.698589
Ni 13.619726  6.266046  0.847441
Ni  8.230086  9.903096  2.686061
Ni 10.027581  8.077258  2.691636
Ni 10.052312  9.890789  0.886295
Ni 11.833182  9.874670  2.695209
Ni 13.632035  8.093185  2.699535
Ni 13.654189  9.841650  0.888173
Ni  8.245106 13.508240  2.701689
Ni 10.068819 11.694937  2.714676
Ni 10.081376 13.500891  0.897148
Ni 11.856801 13.503519  2.711012
Ni 13.629027 11.669199  2.748145
Ni 13.659535 13.531414  0.907110
Ni  8.248435  2.650759  2.689127
Ni 10.077429  0.851238  2.728888
Ni 10.056585  2.663416  0.877623
Ni 11.826766  2.670016  2.703055
Ni 13.624981  0.876286  2.673619
Ni 13.627184  2.680929  0.900859
Ni  8.222721  6.283591  6.340342
Ni 10.019814  4.469563  6.329781
Ni 10.034418  6.277087  4.513499
Ni 11.822559  6.268360  6.337556
Ni 13.645631  4.478454  6.317543
Ni 13.610531  6.273978  4.552335
Ni  8.233699  9.883037  6.325216
Ni 10.041632  8.083784  6.321769
Ni 10.033117  9.881331  4.504711
Ni 11.858880  9.880464  6.308346
Ni 13.641619  8.064979  6.309408
Ni 13.653310  9.858447  4.493020
Ni  8.227367 13.518957  6.294397
Ni 10.056738 11.693954  6.290639
Ni 10.049468 13.509928  4.506854
Ni 11.835928 13.510865  6.309721
Ni 13.665914 11.709879  6.287688
Ni 13.636734 13.476723  4.501482
Ni  8.198596  2.663506  6.322193
Ni 10.025508  0.858304  6.307196
Ni 10.028471  2.663438  4.516530
Ni 11.834405  2.672271  6.322336
Ni 13.629855  0.842920  6.328381
Ni 13.605756  2.712034  4.510311
Ni  0.996726  6.268347  9.893672
Ni  2.801733  4.440900  9.911648
Ni  0.933822  4.463782  8.096761
Ni  4.504399  6.365543  9.913283
Ni  6.359995  4.459322  9.936833
Ni  4.597526  9.865469  9.899539
Ni  4.636567  4.448351  8.119449
Ni  0.970685  8.063828  8.091066
Ni  0.935521  9.933662  9.908577
Ni  4.551622 11.716777 11.702296
Ni  6.453762  8.120813  9.910472
Ni  6.411233  9.941164  8.090926
Ni  2.810728  9.906112  8.096196
Ni  0.935439 13.478119  9.915900
Ni  4.558143 11.713417  8.089703
Ni  2.762212 13.517837  8.068295
Ni  4.570610 13.561352  9.900442
Ni  6.469769 10.013203 11.729765
Ni  6.426061 13.497511  8.140307
Ni  0.969056  2.670660  9.896214
Ni  4.572070  0.891915  8.121451
Ni  0.988912  0.850351  8.057893
Ni  4.576840  2.615797  9.917856
Ni  6.405501  0.817653  9.906943
Ni  6.411009  2.643791  8.170613
Ni  2.782566  0.891524  6.230703
Ni  0.950169  6.248983 13.516611
Ni  2.810191  4.434635 13.553664
Ni  0.939430  4.434429 11.695899
Ni  6.448878  4.370836 13.528505
Ni  6.389527  6.272764 11.677990
Ni  4.596594  4.434109 11.717421
Ni  1.043858  9.898977 13.570868
Ni  2.869628  7.951072 13.436567
Ni  2.770632  9.873653 11.728471
Ni  0.983749  8.068546 11.743481
Ni  4.594353  9.875431 13.569449
Ni  8.205040  6.271297 13.501218
Ni  6.439337  8.136478 13.556005
Ni  0.930591  0.886104 11.697902
Ni  0.966502 11.702156 11.751851
Ni  4.556285 13.565193 13.576103
Ni  6.396631 13.515557 11.746704
Ni  2.752796 13.533593 11.737906
Ni  2.748992  0.924177 13.597503
Ni  2.781660  2.653379 11.694081
Ni  4.611167  2.661443 13.539091
Ni  6.398111  2.577386 11.739313
Ni  0.960155  4.462435  0.881371
Ni  6.445978  4.429484  2.700694
Ni  4.649427  4.484743  0.912299
Ni  0.993639  9.806713  2.701457
Ni  0.957148  8.024071  0.872192
Ni  2.805251  7.904786  2.753126
Ni  6.453267  8.087390  2.702631
Ni  6.418047  9.931790  0.877478
Ni  4.663317  8.045110  0.887283
Ni  0.949946 13.523401  2.711355
Ni  2.769317 11.607947  2.652464
Ni  2.692832 13.471712  0.849159
Ni  4.585733 13.499033  2.654750
Ni  6.404956 11.722412  2.700855
Ni  6.401076 13.488211  0.910758
Ni  4.522677 11.675421  0.941576
Ni  0.949023  2.716595  2.717262
Ni  2.748834  0.838081  2.758009
Ni  0.972919  0.916950  0.944725
Ni  4.645437  2.670816  2.710489
Ni  6.395252  0.838204  2.683829
Ni  6.411355  2.626276  0.903310
Ni  4.550604  0.842008  0.941817
Ni  0.968151  6.272901  6.312969
Ni  2.808039  4.343107  6.278634
Ni  2.802136  4.663998  2.717447
Ni  0.966013  4.494841  4.522049
Ni  4.645634  8.028010  4.543739
Ni  6.411975  4.522525  6.323660
Ni  6.438636  6.273468  4.569581
Ni  4.677032  4.482383  4.516438
Ni  0.969443 11.722156  8.095546
Ni  2.857659  8.086101  6.377145
Ni  2.793524  9.855457  4.482766
Ni  0.990885  8.045873  4.526308
Ni  6.405234  6.249731  8.131808
Ni  6.474883  9.894981  4.521453
Ni  6.399734  8.066813  6.296762
Ni  0.988312 13.508904  6.263215
Ni  2.773657 11.731774  6.284483
Ni  0.982502 11.652141  4.462117
Ni  6.430291 11.716118  6.292375
Ni  6.405770 13.512730  4.465151
Ni  4.627369 11.751824  4.478422
Ni  0.931289  2.659348  6.271881
Ni  4.618957  0.832146  4.477471
Ni  6.432139  0.835326  6.302480
Ni  6.451284  2.649264  4.466707
%ENDBLOCK POSITIONS_ABS

