#######################################################
#CASTEP cell file: /home/u2093113/CASTEP/castep.cell
#Created using the Atomic Simulation Environment (ASE)#
#######################################################

%BLOCK LATTICE_CART
14.464828  0.000000  0.000000
 0.000000 14.464828  0.000000
 0.000000  0.000000 14.464828
%ENDBLOCK LATTICE_CART

%BLOCK POSITIONS_ABS
Al  8.224623  4.456838  8.140039
Al 11.834955  4.462780  8.122969
Al  8.214622  8.096646  8.114794
Al 11.849935  8.092128  8.134820
Al  8.301604 11.714004  8.035496
Al 11.870066 11.703796  8.098348
Al  8.224145  0.841774  8.124855
Al 11.849281  0.855518  8.100542
Al  8.215499  4.438017 11.727759
Al 11.833704  4.478540 11.712382
Al  8.216852  8.118351 11.726848
Al 11.852048  8.085545 11.721911
Al  8.375873 11.740402 11.747382
Al 11.870615 11.694508 11.731315
Al  8.285508  0.815376 11.662224
Al 11.867213  0.857728 11.708203
Al  8.239858  4.431121  0.867981
Al 11.827424  4.483359  0.872661
Al  8.244264  8.104832  0.877298
Al 11.830014  8.073140  0.870401
Al  8.303386 11.722334  0.953728
Al 11.896136 11.693544  0.891080
Al  8.335663  0.836808  0.982764
Al 11.840615  0.860991  0.890446
Al  8.237174  4.468130  4.515090
Al 11.809772  4.476850  4.514711
Al  8.249613  8.078493  4.512109
Al 11.835866  8.083524  4.503080
Al  8.235231 11.710434  4.498882
Al 11.845348 11.686726  4.518666
Al  8.223713  0.850747  4.489532
Al 11.869107  0.859642  4.523201
Al  4.768256  2.665639  6.290231
Al  0.825312  0.875650  4.492695
Al  2.799238  2.764028  4.385101
Al  4.665571 13.529224  6.368013
Al  2.777113 13.415353  4.407000
Al  4.736256  8.080606  8.100849
Al  0.973029  9.882525  6.311270
Al  2.847188  2.713213  1.013406
Al  0.858698 11.672271  1.015522
Al  4.677594  9.781990  2.852053
Al  2.794979  9.657910  0.895901
Al  4.783948  6.302291  2.709642
Al  4.607137  9.922883  6.164393
Al  2.731298  6.281530  0.793511
Al  0.802111  6.274194  2.717049
Al  4.549884  0.839886 11.734051
Al  6.358175  0.839060 13.659031
Al  2.651629  0.777736  9.885521
Al  0.911049  2.669824 13.481269
Al  6.256522 11.737879 13.563773
Al  0.897169 13.652293 13.493422
Al  2.872724 11.700274 13.465862
Al  4.742892  8.236181 11.720421
Al  4.819467  6.188793 13.563821
Al  2.682488  6.131258 11.727142
Al  2.704301  2.733046  8.082874
Al  6.282718 11.724866  9.899848
Al  2.766562 11.710447  9.900721
Al  2.735030  6.132651  8.038473
Al  2.826216  6.301762  4.687603
Al  2.625792  8.212988  9.901407
Ni  8.219739  6.265644  9.928638
Ni 10.031075  4.460295  9.928200
Ni 10.034297  6.282205  8.137480
Ni 11.847897  6.282598  9.924084
Ni 13.647442  4.472961  9.906645
Ni 13.633815  6.289623  8.119194
Ni  8.231744  9.979576  9.908761
Ni 10.025775  8.098064  9.927621
Ni 10.057346  9.894002  8.118028
Ni 11.860912  9.888977  9.935514
Ni 13.676449  8.085547  9.929489
Ni 13.654043  9.900178  8.123825
Ni  8.230096 13.445787  9.923938
Ni 10.082251 11.708434  9.902756
Ni 10.038286 13.514803  8.101697
Ni 11.858067 13.519426  9.892896
Ni 13.644600 11.706411  9.915607
Ni 13.666960 13.505020  8.089980
Ni  8.212019  2.649418  9.939976
Ni 10.055092  0.843221  9.901006
Ni 10.018580  2.652980  8.115726
Ni 11.841583  2.659814  9.896738
Ni 13.674395  0.859712  9.884997
Ni 13.656318  2.657380  8.104294
Ni  6.516138  6.258964  0.887003
Ni 10.019972  4.466845 13.519721
Ni 10.019052  6.282832 11.719944
Ni 11.824778  6.283959 13.508593
Ni 13.642948  4.490778 13.520391
Ni 13.658118  6.272204 11.712644
Ni  8.234534  9.987637 13.555392
Ni 10.017321  8.091373 13.527593
Ni 10.048263  9.898438 11.734112
Ni 11.853717  9.877048 13.533504
Ni 13.655586  8.081430 13.529151
Ni 13.676817  9.896068 11.742755
Ni  8.232493 13.521346 13.564437
Ni 10.090312 11.718010 13.563979
Ni 10.084703 13.519116 11.730808
Ni 11.885275 13.500356 13.540995
Ni 13.697994 11.689979 13.542725
Ni 13.646537 13.518442 11.692516
Ni  8.233247  2.559215 13.542208
Ni 10.079529  0.837108 13.537139
Ni 10.042932  2.646120 11.726211
Ni 11.843015  2.692711 13.527373
Ni 13.602746  0.892841 13.551636
Ni 13.615014  2.666472 11.680844
Ni  8.242505  6.261098  2.711584
Ni 10.034407  4.468172  2.690773
Ni 10.014532  6.273436  0.868592
Ni 11.840491  6.275803  2.686857
Ni 13.617500  4.446457  2.695758
Ni 13.611188  6.269581  0.837903
Ni  8.240123  9.908330  2.682818
Ni 10.030817  8.081380  2.687843
Ni 10.052887  9.896837  0.880625
Ni 11.830309  9.883426  2.689920
Ni 13.619912  8.101445  2.689311
Ni 13.647084  9.850011  0.880060
Ni  8.237987 13.506662  2.703656
Ni 10.069007 11.702112  2.713391
Ni 10.077910 13.504786  0.896909
Ni 11.855818 13.510316  2.709868
Ni 13.624607 11.677478  2.745381
Ni 13.660270 13.535476  0.906400
Ni  8.246605  2.654809  2.688850
Ni 10.072865  0.851981  2.728866
Ni 10.054719  2.662314  0.875986
Ni 11.825788  2.667182  2.700724
Ni 13.628091  0.880215  2.672625
Ni 13.627184  2.681159  0.897535
Ni  8.244678  6.280873  6.340496
Ni 10.021866  4.464342  6.329668
Ni 10.040092  6.277903  4.511690
Ni 11.818624  6.268354  6.339800
Ni 13.640573  4.479256  6.317269
Ni 13.596625  6.277295  4.548313
Ni  8.239753  9.881776  6.322888
Ni 10.046306  8.087112  6.323831
Ni 10.034957  9.886475  4.503693
Ni 11.855986  9.887248  6.308715
Ni 13.629360  8.071140  6.311799
Ni 13.644315  9.866371  4.488497
Ni  8.220833 13.517099  6.289090
Ni 10.056342 11.700762  6.289689
Ni 10.047341 13.513149  4.506244
Ni 11.839498 13.513606  6.309221
Ni 13.665660 11.713823  6.286716
Ni 13.636137 13.483114  4.501096
Ni  8.208495  2.657484  6.319685
Ni 10.026560  0.853661  6.305739
Ni 10.028132  2.661916  4.514576
Ni 11.834680  2.670134  6.322638
Ni 13.637239  0.850754  6.327305
Ni 13.605683  2.712493  4.509504
Ni  0.988985  6.273699  9.901740
Ni  2.797073  4.444808  9.919117
Ni  0.929174  4.473148  8.096619
Ni  4.504553  6.373281  9.942771
Ni  6.365413  4.456511  9.943390
Ni  4.595500  9.866639  9.896666
Ni  4.631459  4.434688  8.134802
Ni  0.954030  8.068175  8.104410
Ni  0.933755  9.938820  9.907681
Ni  4.550737 11.717403 11.703283
Ni  6.455172  8.126293  9.916213
Ni  6.408522  9.941765  8.082447
Ni  2.811358  9.902067  8.085780
Ni  0.940037 13.479398  9.911438
Ni  4.557203 11.698705  8.069738
Ni  2.765764 13.514813  8.059277
Ni  4.568221 13.557910  9.892890
Ni  6.467167 10.019037 11.729617
Ni  6.421644 13.495867  8.134057
Ni  0.970240  2.672014  9.895023
Ni  4.570736  0.897339  8.117375
Ni  0.993845  0.853091  8.053242
Ni  4.575551  2.620649  9.916903
Ni  6.401275  0.817006  9.905434
Ni  6.414212  2.641068  8.169458
Ni  2.785858  0.895302  6.226680
Ni  0.945687  6.252441 13.513658
Ni  2.810213  4.437574 13.555535
Ni  0.938851  4.434294 11.697082
Ni  6.446701  4.372669 13.530992
Ni  6.393154  6.274855 11.683713
Ni  4.596585  4.436670 11.720127
Ni  1.043706  9.907146 13.571078
Ni  2.869379  7.958107 13.440491
Ni  2.770772  9.879565 11.730797
Ni  0.981828  8.075389 11.745826
Ni  4.594495  9.877267 13.577196
Ni  8.206445  6.274422 13.502675
Ni  6.435697  8.140706 13.560899
Ni  0.934136  0.887093 11.695608
Ni  0.968507 11.706833 11.750621
Ni  4.555742 13.562732 13.582050
Ni  6.392644 13.514686 11.746481
Ni  2.754318 13.533369 11.736075
Ni  2.750509  0.923480 13.601396
Ni  2.784615  2.653570 11.694931
Ni  4.610315  2.663483 13.543091
Ni  6.393338  2.575373 11.739601
Ni  0.956761  4.467213  0.878566
Ni  6.443345  4.442233  2.701014
Ni  4.647853  4.495292  0.916788
Ni  0.982721  9.808825  2.693351
Ni  0.942517  8.033001  0.851858
Ni  2.784284  7.904750  2.750315
Ni  6.479219  8.086199  2.697592
Ni  6.414476  9.931882  0.890961
Ni  4.663440  8.051685  0.912855
Ni  0.950148 13.526417  2.710822
Ni  2.769571 11.600015  2.657710
Ni  2.693878 13.469046  0.854138
Ni  4.583322 13.495072  2.658717
Ni  6.394746 11.707588  2.703120
Ni  6.396000 13.485686  0.916328
Ni  4.523244 11.662846  0.954709
Ni  0.949309  2.724513  2.715438
Ni  2.747880  0.843280  2.759852
Ni  0.975136  0.919356  0.945947
Ni  4.642453  2.682253  2.714837
Ni  6.390805  0.841391  2.684578
Ni  6.406723  2.631280  0.907563
Ni  4.547028  0.843617  0.946489
Ni  0.936330  6.283869  6.316830
Ni  2.822505  4.385577  6.273115
Ni  2.800167  4.692322  2.712976
Ni  0.956951  4.507850  4.517562
Ni  4.661638  6.241883  6.360495
Ni  6.440398  4.494778  6.323907
Ni  6.459200  6.279536  4.546067
Ni  4.670817  4.509909  4.504326
Ni  0.972034 11.722048  8.091217
Ni  2.834140  8.088771  6.359598
Ni  2.764469  9.841034  4.470296
Ni  0.972400  8.050538  4.515763
Ni  6.429771  6.249415  8.158751
Ni  6.488834  9.890379  4.512120
Ni  6.401292  8.076397  6.277465
Ni  0.992743 13.509356  6.259176
Ni  2.776694 11.718874  6.273069
Ni  0.971064 11.661578  4.458634
Ni  6.420789 11.703502  6.283964
Ni  6.394037 13.507289  4.462232
Ni  4.620763 11.718907  4.470083
Ni  0.946231  2.675784  6.265916
Ni  4.616466  0.837430  4.474559
Ni  6.429680  0.838366  6.298334
Ni  6.446998  2.656451  4.463365
%ENDBLOCK POSITIONS_ABS

