%block lattice_abc 
  14.46482773 14.46482773 14.46482773 #lattice params 
 90.0  90.0  90.0 
     %endblock lattice_abc 
     fix_all_cell : true 
     %BLOCK POSITIONS_ABS 
Al  8.224623  4.456838  8.140039
 Al 11.834955  4.462780  8.122969
 Al  8.214622  8.096646  8.114794
 Al 11.849935  8.092128  8.134820
 Al  8.301604 11.714004  8.035496
 Al 11.870066 11.703796  8.098348
 Al  8.224145  0.841774  8.124855
 Al 11.849281  0.855518  8.100542
 Al  8.215499  4.438017 11.727759
 Al 11.833704  4.478540 11.712382
 Al  8.216852  8.118351 11.726848
 Al 11.852048  8.085545 11.721911
 Al  8.375873 11.740402 11.747382
 Al 11.870615 11.694508 11.731315
 Al  8.285508  0.815376 11.662224
 Al 11.867213  0.857728 11.708203
 Al  8.239858  4.431121  0.867981
 Al 11.827424  4.483359  0.872661
 Al  8.244264  8.104832  0.877298
 Al 11.830014  8.073140  0.870401
 Al  8.303386 11.722334  0.953728
 Al 11.896136 11.693544  0.891080
 Al  8.335663  0.836808  0.982764
 Al 11.840615  0.860991  0.890446
 Al  8.237174  4.468130  4.515090
 Al 11.809772  4.476850  4.514711
 Al  8.249613  8.078493  4.512109
 Al 11.835866  8.083524  4.503080
 Al  8.235231 11.710434  4.498882
 Al 11.845348 11.686726  4.518666
 Al  8.223713  0.850747  4.489532
 Al 11.869107  0.859642  4.523201
 Al  4.768256  2.665639  6.290231
 Al  0.825312  0.875650  4.492695
 Al  2.799238  2.764028  4.385101
 Al  4.665571 13.529224  6.368013
 Al  2.777113 13.415353  4.407000
 Al  4.736256  8.080606  8.100849
 Al  0.973029  9.882525  6.311270
 Al  2.847188  2.713213  1.013406
 Al  0.858698 11.672271  1.015522
 Al  4.677594  9.781990  2.852053
 Al  2.794979  9.657910  0.895901
 Al  4.783948  6.302291  2.709642
 Al  4.607137  9.922883  6.164393
 Al  2.731298  6.281530  0.793511
 Al  0.802111  6.274194  2.717049
 Al  4.549884  0.839886 11.734051
 Al  6.358175  0.839060 13.659031
 Al  2.651629  0.777736  9.885521
 Al  0.911049  2.669824 13.481269
 Al  6.256522 11.737879 13.563773
 Al  0.897169 13.652293 13.493422
 Al  2.872724 11.700274 13.465862
 Al  4.742892  8.236181 11.720421
 Al  4.819467  6.188793 13.563821
 Al  2.682488  6.131258 11.727142
 Al  2.704301  2.733046  8.082874
 Al  6.282718 11.724866  9.899848
 Al  2.766562 11.710447  9.900721
 Al  2.735030  6.132651  8.038473
 Al  2.826216  6.301762  4.687603
 Al  2.625792  8.212988  9.901407
 Ni  8.219739  6.265644  9.928638
 Ni 10.031075  4.460295  9.928200
 Ni 10.034297  6.282205  8.137480
 Ni 11.847897  6.282598  9.924084
 Ni 13.647442  4.472961  9.906645
 Ni 13.633815  6.289623  8.119194
 Ni  8.231744  9.979576  9.908761
 Ni 10.025775  8.098064  9.927621
 Ni 10.057346  9.894002  8.118028
 Ni 11.860912  9.888977  9.935514
 Ni 13.676449  8.085547  9.929489
 Ni 13.654043  9.900178  8.123825
 Ni  8.230096 13.445787  9.923938
 Ni 10.082251 11.708434  9.902756
 Ni 10.038286 13.514803  8.101697
 Ni 11.858067 13.519426  9.892896
 Ni 13.644600 11.706411  9.915607
 Ni 13.666960 13.505020  8.089980
 Ni  8.212019  2.649418  9.939976
 Ni 10.055092  0.843221  9.901006
 Ni 10.018580  2.652980  8.115726
 Ni 11.841583  2.659814  9.896738
 Ni 13.674395  0.859712  9.884997
 Ni 13.656318  2.657380  8.104294
 Ni  6.516138  6.258964  0.887003
 Ni 10.019972  4.466845 13.519721
 Ni 10.019052  6.282832 11.719944
 Ni 11.824778  6.283959 13.508593
 Ni 13.642948  4.490778 13.520391
 Ni 13.658118  6.272204 11.712644
 Ni  8.234534  9.987637 13.555392
 Ni 10.017321  8.091373 13.527593
 Ni 10.048263  9.898438 11.734112
 Ni 11.853717  9.877048 13.533504
 Ni 13.655586  8.081430 13.529151
 Ni 13.676817  9.896068 11.742755
 Ni  8.232493 13.521346 13.564437
 Ni 10.090312 11.718010 13.563979
 Ni 10.084703 13.519116 11.730808
 Ni 11.885275 13.500356 13.540995
 Ni 13.697994 11.689979 13.542725
 Ni 13.646537 13.518442 11.692516
 Ni  8.233247  2.559215 13.542208
 Ni 10.079529  0.837108 13.537139
 Ni 10.042932  2.646120 11.726211
 Ni 11.843015  2.692711 13.527373
 Ni 13.602746  0.892841 13.551636
 Ni 13.615014  2.666472 11.680844
 Ni  8.242505  6.261098  2.711584
 Ni 10.034407  4.468172  2.690773
 Ni 10.014532  6.273436  0.868592
 Ni 11.840491  6.275803  2.686857
 Ni 13.617500  4.446457  2.695758
 Ni 13.611188  6.269581  0.837903
 Ni  8.240123  9.908330  2.682818
 Ni 10.030817  8.081380  2.687843
 Ni 10.052887  9.896837  0.880625
 Ni 11.830309  9.883426  2.689920
 Ni 13.619912  8.101445  2.689311
 Ni 13.647084  9.850011  0.880060
 Ni  8.237987 13.506662  2.703656
 Ni 10.069007 11.702112  2.713391
 Ni 10.077910 13.504786  0.896909
 Ni 11.855818 13.510316  2.709868
 Ni 13.624607 11.677478  2.745381
 Ni 13.660270 13.535476  0.906400
 Ni  8.246605  2.654809  2.688850
 Ni 10.072865  0.851981  2.728866
 Ni 10.054719  2.662314  0.875986
 Ni 11.825788  2.667182  2.700724
 Ni 13.628091  0.880215  2.672625
 Ni 13.627184  2.681159  0.897535
 Ni  8.244678  6.280873  6.340496
 Ni 10.021866  4.464342  6.329668
 Ni 10.040092  6.277903  4.511690
 Ni 11.818624  6.268354  6.339800
 Ni 13.640573  4.479256  6.317269
 Ni 13.596625  6.277295  4.548313
 Ni  8.239753  9.881776  6.322888
 Ni 10.046306  8.087112  6.323831
 Ni 10.034957  9.886475  4.503693
 Ni 11.855986  9.887248  6.308715
 Ni 13.629360  8.071140  6.311799
 Ni 13.644315  9.866371  4.488497
 Ni  8.220833 13.517099  6.289090
 Ni 10.056342 11.700762  6.289689
 Ni 10.047341 13.513149  4.506244
 Ni 11.839498 13.513606  6.309221
 Ni 13.665660 11.713823  6.286716
 Ni 13.636137 13.483114  4.501096
 Ni  8.208495  2.657484  6.319685
 Ni 10.026560  0.853661  6.305739
 Ni 10.028132  2.661916  4.514576
 Ni 11.834680  2.670134  6.322638
 Ni 13.637239  0.850754  6.327305
 Ni 13.605683  2.712493  4.509504
 Ni  0.988985  6.273699  9.901740
 Ni  2.797073  4.444808  9.919117
 Ni  0.929174  4.473148  8.096619
 Ni  4.504553  6.373281  9.942771
 Ni  6.365413  4.456511  9.943390
 Ni  4.595500  9.866639  9.896666
 Ni  4.631459  4.434688  8.134802
 Ni  0.954030  8.068175  8.104410
 Ni  0.933755  9.938820  9.907681
 Ni  4.550737 11.717403 11.703283
 Ni  6.455172  8.126293  9.916213
 Ni  6.408522  9.941765  8.082447
 Ni  2.811358  9.902067  8.085780
 Ni  0.940037 13.479398  9.911438
 Ni  4.557203 11.698705  8.069738
 Ni  2.765764 13.514813  8.059277
 Ni  4.568221 13.557910  9.892890
 Ni  6.467167 10.019037 11.729617
 Ni  6.421644 13.495867  8.134057
 Ni  0.970240  2.672014  9.895023
 Ni  4.570736  0.897339  8.117375
 Ni  0.993845  0.853091  8.053242
 Ni  4.575551  2.620649  9.916903
 Ni  6.401275  0.817006  9.905434
 Ni  6.414212  2.641068  8.169458
 Ni  2.785858  0.895302  6.226680
 Ni  0.945687  6.252441 13.513658
 Ni  2.810213  4.437574 13.555535
 Ni  0.938851  4.434294 11.697082
 Ni  6.446701  4.372669 13.530992
 Ni  6.393154  6.274855 11.683713
 Ni  4.596585  4.436670 11.720127
 Ni  1.043706  9.907146 13.571078
 Ni  2.869379  7.958107 13.440491
 Ni  2.770772  9.879565 11.730797
 Ni  0.981828  8.075389 11.745826
 Ni  4.594495  9.877267 13.577196
 Ni  8.206445  6.274422 13.502675
 Ni  6.435697  8.140706 13.560899
 Ni  0.934136  0.887093 11.695608
 Ni  0.968507 11.706833 11.750621
 Ni  4.555742 13.562732 13.582050
 Ni  6.392644 13.514686 11.746481
 Ni  2.754318 13.533369 11.736075
 Ni  2.750509  0.923480 13.601396
 Ni  2.784615  2.653570 11.694931
 Ni  4.610315  2.663483 13.543091
 Ni  6.393338  2.575373 11.739601
 Ni  0.956761  4.467213  0.878566
 Ni  6.443345  4.442233  2.701014
 Ni  4.647853  4.495292  0.916788
 Ni  0.982721  9.808825  2.693351
 Ni  0.942517  8.033001  0.851858
 Ni  2.784284  7.904750  2.750315
 Ni  6.479219  8.086199  2.697592
 Ni  6.414476  9.931882  0.890961
 Ni  4.663440  8.051685  0.912855
 Ni  0.950148 13.526417  2.710822
 Ni  2.769571 11.600015  2.657710
 Ni  2.693878 13.469046  0.854138
 Ni  4.583322 13.495072  2.658717
 Ni  6.394746 11.707588  2.703120
 Ni  6.396000 13.485686  0.916328
 Ni  4.523244 11.662846  0.954709
 Ni  0.949309  2.724513  2.715438
 Ni  2.747880  0.843280  2.759852
 Ni  0.975136  0.919356  0.945947
 Ni  4.642453  2.682253  2.714837
 Ni  6.390805  0.841391  2.684578
 Ni  6.406723  2.631280  0.907563
 Ni  4.547028  0.843617  0.946489
 Ni  0.936330  6.283869  6.316830
 Ni  2.822505  4.385577  6.273115
 Ni  2.800167  4.692322  2.712976
 Ni  0.956951  4.507850  4.517562
 Ni  4.661638  6.241883  6.360495
 Ni  6.440398  4.494778  6.323907
 Ni  6.459200  6.279536  4.546067
 Ni  4.670817  4.509909  4.504326
 Ni  0.972034 11.722048  8.091217
 Ni  2.834140  8.088771  6.359598
 Ni  2.764469  9.841034  4.470296
 Ni  0.972400  8.050538  4.515763
 Ni  6.429771  6.249415  8.158751
 Ni  6.488834  9.890379  4.512120
 Ni  6.401292  8.076397  6.277465
 Ni  0.992743 13.509356  6.259176
 Ni  2.776694 11.718874  6.273069
 Ni  0.971064 11.661578  4.458634
 Ni  6.420789 11.703502  6.283964
 Ni  6.394037 13.507289  4.462232
 Ni  4.620763 11.718907  4.470083
 Ni  0.946231  2.675784  6.265916
 Ni  4.616466  0.837430  4.474559
 Ni  6.429680  0.838366  6.298334
 Ni  6.446998  2.656451  4.463365
 %ENDBLOCK POSITIONS_ABS
 
%block positions_abs_product 
     ang 
Al  8.220031  4.457173  8.135546
 Al 11.837075  4.463913  8.121145
 Al  8.228518  8.094589  8.126590
 Al 11.854074  8.087246  8.129644
 Al  8.306504 11.713822  8.041573
 Al 11.872532 11.697938  8.098056
 Al  8.227638  0.843574  8.128157
 Al 11.846901  0.855241  8.102570
 Al  8.217497  4.439023 11.725719
 Al 11.834982  4.480150 11.713179
 Al  8.218580  8.112430 11.723138
 Al 11.856764  8.079370 11.723576
 Al  8.381984 11.736360 11.748878
 Al 11.873258 11.688310 11.733591
 Al  8.290116  0.816752 11.661699
 Al 11.867365  0.858163 11.709872
 Al  8.240687  4.429164  0.867184
 Al 11.828876  4.485366  0.876032
 Al  8.242209  8.101561  0.879697
 Al 11.834240  8.067457  0.877706
 Al  8.306108 11.719481  0.951548
 Al 11.898888 11.685653  0.894982
 Al  8.340042  0.835828  0.980138
 Al 11.841012  0.860079  0.891636
 Al  8.238521  4.462070  4.518184
 Al 11.811252  4.479415  4.515542
 Al  8.248331  8.078660  4.509825
 Al 11.837381  8.077997  4.505758
 Al  8.238353 11.710294  4.499410
 Al 11.847196 11.679489  4.519575
 Al  8.230552  0.849314  4.491211
 Al 11.867970  0.858144  4.522854
 Al  4.767799  2.663588  6.295683
 Al  0.820446  0.870035  4.492930
 Al  2.804536  2.745261  4.386106
 Al  4.665237 13.533241  6.373819
 Al  2.775191 13.417989  4.409464
 Al  4.733831  8.067173  8.096315
 Al  0.985466  9.883381  6.311768
 Al  2.847009  2.704993  1.010341
 Al  0.858648 11.669547  1.015062
 Al  4.689349  9.856877  2.795467
 Al  2.790262  9.655391  0.886023
 Al  4.780235  6.263755  2.700498
 Al  4.609742  9.977482  6.219646
 Al  2.735053  6.272281  0.798039
 Al  0.826752  6.267901  2.735073
 Al  4.552320  0.844592 11.731935
 Al  6.363004  0.838398 13.655109
 Al  2.648797  0.774722  9.892339
 Al  0.908560  2.669599 13.481652
 Al  6.258846 11.737209 13.559265
 Al  0.894470 13.649810 13.493174
 Al  2.871308 11.698033 13.460832
 Al  4.742808  8.229934 11.715958
 Al  4.817927  6.182640 13.558455
 Al  2.685633  6.126607 11.721115
 Al  2.710432  2.720571  8.090725
 Al  6.288448 11.724625  9.906783
 Al  2.763209 11.712107  9.907768
 Al  2.759784  6.118432  8.011970
 Al  2.892514  6.256870  4.743554
 Al  2.628476  8.204074  9.894907
 Ni  8.213308  6.261071  9.920576
 Ni 10.030938  4.462550  9.925520
 Ni 10.033936  6.278949  8.131655
 Ni 11.852609  6.280915  9.919806
 Ni 13.649543  4.472810  9.905527
 Ni 13.645317  6.285197  8.112877
 Ni  8.235833  9.975331  9.912821
 Ni 10.031272  8.092121  9.927083
 Ni 10.058514  9.889872  8.116432
 Ni 11.864825  9.881342  9.933126
 Ni 13.684769  8.079829  9.922780
 Ni 13.660394  9.893936  8.120702
 Ni  8.236084 13.444896  9.927276
 Ni 10.086860 11.703521  9.904295
 Ni 10.041458 13.513217  8.104373
 Ni 11.858479 13.516696  9.894659
 Ni 13.643584 11.700025  9.917069
 Ni 13.663241 13.502114  8.092845
 Ni  8.213047  2.653367  9.938023
 Ni 10.057178  0.844307  9.901985
 Ni 10.017815  2.656549  8.114635
 Ni 11.840877  2.662178  9.896643
 Ni 13.671401  0.859231  9.887510
 Ni 13.652554  2.655211  8.105633
 Ni  6.511854  6.255421  0.884285
 Ni 10.021403  4.468125 13.521059
 Ni 10.019211  6.281289 11.717257
 Ni 11.826527  6.283583 13.513178
 Ni 13.644527  4.491556 13.522770
 Ni 13.661509  6.270840 11.712314
 Ni  8.240250  9.982071 13.551886
 Ni 10.018212  8.086488 13.530423
 Ni 10.055584  9.891137 11.734598
 Ni 11.858129  9.868364 13.538996
 Ni 13.664587  8.075309 13.536670
 Ni 13.677950  9.887372 11.743101
 Ni  8.237591 13.518948 13.562353
 Ni 10.094775 11.712121 13.565604
 Ni 10.088681 13.516560 11.732019
 Ni 11.886482 13.496422 13.542993
 Ni 13.698096 11.683170 13.545481
 Ni 13.644244 13.515624 11.694801
 Ni  8.237396  2.560322 13.540855
 Ni 10.082500  0.836420 13.537498
 Ni 10.044746  2.648700 11.726081
 Ni 11.843874  2.694507 13.529252
 Ni 13.601065  0.891963 13.553323
 Ni 13.614268  2.667198 11.680928
 Ni  8.228574  6.260372  2.716517
 Ni 10.031818  4.470472  2.693372
 Ni 10.010374  6.272196  0.875364
 Ni 11.843359  6.274447  2.692181
 Ni 13.624338  4.447771  2.698589
 Ni 13.619726  6.266046  0.847441
 Ni  8.230086  9.903096  2.686061
 Ni 10.027581  8.077258  2.691636
 Ni 10.052312  9.890789  0.886295
 Ni 11.833182  9.874670  2.695209
 Ni 13.632035  8.093185  2.699535
 Ni 13.654189  9.841650  0.888173
 Ni  8.245106 13.508240  2.701689
 Ni 10.068819 11.694937  2.714676
 Ni 10.081376 13.500891  0.897148
 Ni 11.856801 13.503519  2.711012
 Ni 13.629027 11.669199  2.748145
 Ni 13.659535 13.531414  0.907110
 Ni  8.248435  2.650759  2.689127
 Ni 10.077429  0.851238  2.728888
 Ni 10.056585  2.663416  0.877623
 Ni 11.826766  2.670016  2.703055
 Ni 13.624981  0.876286  2.673619
 Ni 13.627184  2.680929  0.900859
 Ni  8.222721  6.283591  6.340342
 Ni 10.019814  4.469563  6.329781
 Ni 10.034418  6.277087  4.513499
 Ni 11.822559  6.268360  6.337556
 Ni 13.645631  4.478454  6.317543
 Ni 13.610531  6.273978  4.552335
 Ni  8.233699  9.883037  6.325216
 Ni 10.041632  8.083784  6.321769
 Ni 10.033117  9.881331  4.504711
 Ni 11.858880  9.880464  6.308346
 Ni 13.641619  8.064979  6.309408
 Ni 13.653310  9.858447  4.493020
 Ni  8.227367 13.518957  6.294397
 Ni 10.056738 11.693954  6.290639
 Ni 10.049468 13.509928  4.506854
 Ni 11.835928 13.510865  6.309721
 Ni 13.665914 11.709879  6.287688
 Ni 13.636734 13.476723  4.501482
 Ni  8.198596  2.663506  6.322193
 Ni 10.025508  0.858304  6.307196
 Ni 10.028471  2.663438  4.516530
 Ni 11.834405  2.672271  6.322336
 Ni 13.629855  0.842920  6.328381
 Ni 13.605756  2.712034  4.510311
 Ni  0.996726  6.268347  9.893672
 Ni  2.801733  4.440900  9.911648
 Ni  0.933822  4.463782  8.096761
 Ni  4.504399  6.365543  9.913283
 Ni  6.359995  4.459322  9.936833
 Ni  4.597526  9.865469  9.899539
 Ni  4.636567  4.448351  8.119449
 Ni  0.970685  8.063828  8.091066
 Ni  0.935521  9.933662  9.908577
 Ni  4.551622 11.716777 11.702296
 Ni  6.453762  8.120813  9.910472
 Ni  6.411233  9.941164  8.090926
 Ni  2.810728  9.906112  8.096196
 Ni  0.935439 13.478119  9.915900
 Ni  4.558143 11.713417  8.089703
 Ni  2.762212 13.517837  8.068295
 Ni  4.570610 13.561352  9.900442
 Ni  6.469769 10.013203 11.729765
 Ni  6.426061 13.497511  8.140307
 Ni  0.969056  2.670660  9.896214
 Ni  4.572070  0.891915  8.121451
 Ni  0.988912  0.850351  8.057893
 Ni  4.576840  2.615797  9.917856
 Ni  6.405501  0.817653  9.906943
 Ni  6.411009  2.643791  8.170613
 Ni  2.782566  0.891524  6.230703
 Ni  0.950169  6.248983 13.516611
 Ni  2.810191  4.434635 13.553664
 Ni  0.939430  4.434429 11.695899
 Ni  6.448878  4.370836 13.528505
 Ni  6.389527  6.272764 11.677990
 Ni  4.596594  4.434109 11.717421
 Ni  1.043858  9.898977 13.570868
 Ni  2.869628  7.951072 13.436567
 Ni  2.770632  9.873653 11.728471
 Ni  0.983749  8.068546 11.743481
 Ni  4.594353  9.875431 13.569449
 Ni  8.205040  6.271297 13.501218
 Ni  6.439337  8.136478 13.556005
 Ni  0.930591  0.886104 11.697902
 Ni  0.966502 11.702156 11.751851
 Ni  4.556285 13.565193 13.576103
 Ni  6.396631 13.515557 11.746704
 Ni  2.752796 13.533593 11.737906
 Ni  2.748992  0.924177 13.597503
 Ni  2.781660  2.653379 11.694081
 Ni  4.611167  2.661443 13.539091
 Ni  6.398111  2.577386 11.739313
 Ni  0.960155  4.462435  0.881371
 Ni  6.445978  4.429484  2.700694
 Ni  4.649427  4.484743  0.912299
 Ni  0.993639  9.806713  2.701457
 Ni  0.957148  8.024071  0.872192
 Ni  2.805251  7.904786  2.753126
 Ni  6.453267  8.087390  2.702631
 Ni  6.418047  9.931790  0.877478
 Ni  4.663317  8.045110  0.887283
 Ni  0.949946 13.523401  2.711355
 Ni  2.769317 11.607947  2.652464
 Ni  2.692832 13.471712  0.849159
 Ni  4.585733 13.499033  2.654750
 Ni  6.404956 11.722412  2.700855
 Ni  6.401076 13.488211  0.910758
 Ni  4.522677 11.675421  0.941576
 Ni  0.949023  2.716595  2.717262
 Ni  2.748834  0.838081  2.758009
 Ni  0.972919  0.916950  0.944725
 Ni  4.645437  2.670816  2.710489
 Ni  6.395252  0.838204  2.683829
 Ni  6.411355  2.626276  0.903310
 Ni  4.550604  0.842008  0.941817
 Ni  0.968151  6.272901  6.312969
 Ni  2.808039  4.343107  6.278634
 Ni  2.802136  4.663998  2.717447
 Ni  0.966013  4.494841  4.522049
 Ni  4.645634  8.028010  4.543739
 Ni  6.411975  4.522525  6.323660
 Ni  6.438636  6.273468  4.569581
 Ni  4.677032  4.482383  4.516438
 Ni  0.969443 11.722156  8.095546
 Ni  2.857659  8.086101  6.377145
 Ni  2.793524  9.855457  4.482766
 Ni  0.990885  8.045873  4.526308
 Ni  6.405234  6.249731  8.131808
 Ni  6.474883  9.894981  4.521453
 Ni  6.399734  8.066813  6.296762
 Ni  0.988312 13.508904  6.263215
 Ni  2.773657 11.731774  6.284483
 Ni  0.982502 11.652141  4.462117
 Ni  6.430291 11.716118  6.292375
 Ni  6.405770 13.512730  4.465151
 Ni  4.627369 11.751824  4.478422
 Ni  0.931289  2.659348  6.271881
 Ni  4.618957  0.832146  4.477471
 Ni  6.432139  0.835326  6.302480
 Ni  6.451284  2.649264  4.466707
%endblock positions_abs_product 
%block positions_abs_intermediate 
     ang 
Al  8.222327  4.457006  8.137793
 Al 11.836015  4.463347  8.122057
 Al  8.221570  8.095617  8.120692
 Al 11.852005  8.089687  8.132232
 Al  8.304054 11.713913  8.038535
 Al 11.871299 11.700867  8.098202
 Al  8.225891  0.842674  8.126506
 Al 11.848091  0.855379  8.101556
 Al  8.216498  4.438520 11.726739
 Al 11.834343  4.479345 11.712780
 Al  8.217716  8.115391 11.724993
 Al 11.854406  8.082458 11.722744
 Al  8.378929 11.738381 11.748130
 Al 11.871936 11.691409 11.732453
 Al  8.287812  0.816064 11.661961
 Al 11.867289  0.857945 11.709038
 Al  8.240273  4.430143  0.867582
 Al 11.828150  4.484362  0.874347
 Al  8.243236  8.103196  0.878497
 Al 11.832127  8.070299  0.874054
 Al  8.304747 11.720907  0.952638
 Al 11.897512 11.689599  0.893031
 Al  8.337852  0.836318  0.981451
 Al 11.840813  0.860535  0.891041
 Al  8.237848  4.465100  4.516637
 Al 11.810512  4.478133  4.515126
 Al  8.248972  8.078576  4.510967
 Al 11.836624  8.080761  4.504419
 Al  8.236792 11.710364  4.499146
 Al 11.846272 11.683108  4.519120
 Al  8.227133  0.850031  4.490371
 Al 11.868538  0.858893  4.523027
 Al  4.768028  2.664614  6.292957
 Al  0.822879  0.872842  4.492812
 Al  2.801887  2.754644  4.385604
 Al  4.665404 13.531232  6.370916
 Al  2.776152 13.416671  4.408232
 Al  4.735044  8.073890  8.098582
 Al  0.979247  9.882953  6.311519
 Al  2.847098  2.709103  1.011874
 Al  0.858673 11.670909  1.015292
 Al  4.683471  9.819434  2.823760
 Al  2.792621  9.656650  0.890962
 Al  4.782092  6.283023  2.705070
 Al  4.608440  9.950182  6.192019
 Al  2.733175  6.276906  0.795775
 Al  0.814432  6.271048  2.726061
 Al  4.551102  0.842239 11.732993
 Al  6.360589  0.838729 13.657070
 Al  2.650213  0.776229  9.888930
 Al  0.909805  2.669711 13.481460
 Al  6.257684 11.737544 13.561519
 Al  0.895820 13.651052 13.493298
 Al  2.872016 11.699153 13.463347
 Al  4.742850  8.233057 11.718190
 Al  4.818697  6.185717 13.561138
 Al  2.684061  6.128932 11.724129
 Al  2.707367  2.726808  8.086799
 Al  6.285583 11.724746  9.903315
 Al  2.764886 11.711277  9.904245
 Al  2.747407  6.125542  8.025221
 Al  2.859365  6.279316  4.715578
 Al  2.627134  8.208531  9.898157
 Ni  8.216523  6.263357  9.924607
 Ni 10.031007  4.461423  9.926860
 Ni 10.034117  6.280577  8.134568
 Ni 11.850253  6.281756  9.921945
 Ni 13.648493  4.472886  9.906086
 Ni 13.639566  6.287410  8.116036
 Ni  8.233788  9.977454  9.910791
 Ni 10.028523  8.095092  9.927352
 Ni 10.057930  9.891937  8.117230
 Ni 11.862868  9.885160  9.934320
 Ni 13.680609  8.082688  9.926135
 Ni 13.657218  9.897057  8.122264
 Ni  8.233090 13.445342  9.925607
 Ni 10.084556 11.705978  9.903525
 Ni 10.039872 13.514010  8.103035
 Ni 11.858273 13.518061  9.893778
 Ni 13.644092 11.703218  9.916338
 Ni 13.665100 13.503567  8.091412
 Ni  8.212533  2.651393  9.938999
 Ni 10.056135  0.843764  9.901496
 Ni 10.018198  2.654764  8.115180
 Ni 11.841230  2.660996  9.896690
 Ni 13.672898  0.859471  9.886253
 Ni 13.654436  2.656295  8.104963
 Ni  6.513996  6.257192  0.885644
 Ni 10.020688  4.467485 13.520390
 Ni 10.019131  6.282060 11.718601
 Ni 11.825652  6.283771 13.510886
 Ni 13.643738  4.491167 13.521581
 Ni 13.659814  6.271522 11.712479
 Ni  8.237392  9.984854 13.553639
 Ni 10.017766  8.088930 13.529008
 Ni 10.051923  9.894787 11.734355
 Ni 11.855923  9.872706 13.536250
 Ni 13.660087  8.078369 13.532910
 Ni 13.677383  9.891720 11.742928
 Ni  8.235042 13.520147 13.563395
 Ni 10.092543 11.715065 13.564792
 Ni 10.086692 13.517838 11.731414
 Ni 11.885879 13.498389 13.541994
 Ni 13.698045 11.686575 13.544103
 Ni 13.645391 13.517033 11.693658
 Ni  8.235321  2.559768 13.541532
 Ni 10.081014  0.836764 13.537318
 Ni 10.043839  2.647410 11.726146
 Ni 11.843445  2.693609 13.528312
 Ni 13.601905  0.892402 13.552480
 Ni 13.614641  2.666835 11.680886
 Ni  8.235539  6.260735  2.714050
 Ni 10.033113  4.469322  2.692073
 Ni 10.012453  6.272816  0.871978
 Ni 11.841925  6.275125  2.689519
 Ni 13.620919  4.447114  2.697173
 Ni 13.615457  6.267814  0.842672
 Ni  8.235104  9.905713  2.684440
 Ni 10.029199  8.079319  2.689739
 Ni 10.052600  9.893813  0.883460
 Ni 11.831745  9.879048  2.692565
 Ni 13.625974  8.097315  2.694423
 Ni 13.650636  9.845831  0.884116
 Ni  8.241547 13.507451  2.702672
 Ni 10.068913 11.698524  2.714033
 Ni 10.079643 13.502839  0.897028
 Ni 11.856310 13.506918  2.710440
 Ni 13.626817 11.673339  2.746763
 Ni 13.659902 13.533445  0.906755
 Ni  8.247520  2.652784  2.688989
 Ni 10.075147  0.851610  2.728877
 Ni 10.055652  2.662865  0.876805
 Ni 11.826277  2.668599  2.701889
 Ni 13.626536  0.878251  2.673122
 Ni 13.627184  2.681044  0.899197
 Ni  8.233699  6.282232  6.340419
 Ni 10.020840  4.466953  6.329725
 Ni 10.037255  6.277495  4.512594
 Ni 11.820591  6.268357  6.338678
 Ni 13.643102  4.478855  6.317406
 Ni 13.603578  6.275637  4.550324
 Ni  8.236726  9.882407  6.324052
 Ni 10.043969  8.085448  6.322800
 Ni 10.034037  9.883903  4.504202
 Ni 11.857433  9.883856  6.308530
 Ni 13.635489  8.068060  6.310603
 Ni 13.648813  9.862409  4.490759
 Ni  8.224100 13.518028  6.291743
 Ni 10.056540 11.697358  6.290164
 Ni 10.048404 13.511538  4.506549
 Ni 11.837713 13.512236  6.309471
 Ni 13.665787 11.711851  6.287202
 Ni 13.636435 13.479918  4.501289
 Ni  8.203545  2.660495  6.320939
 Ni 10.026034  0.855983  6.306467
 Ni 10.028302  2.662677  4.515553
 Ni 11.834542  2.671202  6.322487
 Ni 13.633547  0.846837  6.327843
 Ni 13.605719  2.712263  4.509907
 Ni  0.992855  6.271023  9.897706
 Ni  2.799403  4.442854  9.915383
 Ni  0.931498  4.468465  8.096690
 Ni  4.504476  6.369412  9.928027
 Ni  6.362704  4.457916  9.940112
 Ni  4.596513  9.866054  9.898103
 Ni  4.634013  4.441519  8.127126
 Ni  0.962358  8.066002  8.097738
 Ni  0.934638  9.936241  9.908129
 Ni  4.551179 11.717090 11.702789
 Ni  6.454467  8.123553  9.913342
 Ni  6.409878  9.941464  8.086686
 Ni  2.811043  9.904089  8.090988
 Ni  0.937738 13.478759  9.913669
 Ni  4.557673 11.706061  8.079720
 Ni  2.763988 13.516325  8.063786
 Ni  4.569416 13.559631  9.896666
 Ni  6.468468 10.016120 11.729691
 Ni  6.423852 13.496689  8.137182
 Ni  0.969648  2.671337  9.895619
 Ni  4.571403  0.894627  8.119413
 Ni  0.991379  0.851721  8.055567
 Ni  4.576195  2.618223  9.917379
 Ni  6.403388  0.817330  9.906189
 Ni  6.412610  2.642430  8.170036
 Ni  2.784212  0.893413  6.228691
 Ni  0.947928  6.250712 13.515134
 Ni  2.810202  4.436105 13.554600
 Ni  0.939140  4.434361 11.696491
 Ni  6.447789  4.371753 13.529749
 Ni  6.391341  6.273810 11.680852
 Ni  4.596590  4.435390 11.718774
 Ni  1.043782  9.903062 13.570973
 Ni  2.869503  7.954589 13.438529
 Ni  2.770702  9.876609 11.729634
 Ni  0.982789  8.071967 11.744653
 Ni  4.594424  9.876349 13.573323
 Ni  8.205742  6.272860 13.501947
 Ni  6.437517  8.138592 13.558452
 Ni  0.932364  0.886599 11.696755
 Ni  0.967504 11.704494 11.751236
 Ni  4.556014 13.563962 13.579076
 Ni  6.394638 13.515121 11.746592
 Ni  2.753557 13.533481 11.736991
 Ni  2.749750  0.923828 13.599449
 Ni  2.783137  2.653474 11.694506
 Ni  4.610741  2.662463 13.541091
 Ni  6.395724  2.576380 11.739457
 Ni  0.958458  4.464824  0.879969
 Ni  6.444661  4.435858  2.700854
 Ni  4.648640  4.490017  0.914543
 Ni  0.988180  9.807769  2.697404
 Ni  0.949832  8.028536  0.862025
 Ni  2.794768  7.904768  2.751720
 Ni  6.466243  8.086795  2.700111
 Ni  6.416262  9.931836  0.884220
 Ni  4.663379  8.048398  0.900069
 Ni  0.950047 13.524909  2.711089
 Ni  2.769444 11.603981  2.655087
 Ni  2.693355 13.470379  0.851649
 Ni  4.584528 13.497052  2.656734
 Ni  6.399851 11.715000  2.701987
 Ni  6.398538 13.486949  0.913543
 Ni  4.522961 11.669134  0.948142
 Ni  0.949166  2.720554  2.716350
 Ni  2.748357  0.840681  2.758930
 Ni  0.974027  0.918153  0.945336
 Ni  4.643945  2.676534  2.712663
 Ni  6.393029  0.839798  2.684203
 Ni  6.409039  2.628778  0.905436
 Ni  4.548816  0.842813  0.944153
 Ni  0.952240  6.278385  6.314899
 Ni  2.815272  4.364342  6.275874
 Ni  2.801151  4.678160  2.715212
 Ni  0.961482  4.501345  4.519806
 Ni  4.653636  7.134946  5.452117
 Ni  6.426187  4.508652  6.323783
 Ni  6.448918  6.276502  4.557824
 Ni  4.673925  4.496146  4.510382
 Ni  0.970738 11.722102  8.093381
 Ni  2.845899  8.087436  6.368372
 Ni  2.778997  9.848246  4.476531
 Ni  0.981643  8.048205  4.521035
 Ni  6.417502  6.249573  8.145280
 Ni  6.481859  9.892680  4.516786
 Ni  6.400513  8.071605  6.287113
 Ni  0.990527 13.509130  6.261195
 Ni  2.775176 11.725324  6.278776
 Ni  0.976783 11.656859  4.460375
 Ni  6.425540 11.709810  6.288169
 Ni  6.399903 13.510010  4.463692
 Ni  4.624066 11.735366  4.474252
 Ni  0.938760  2.667566  6.268899
 Ni  4.617712  0.834788  4.476015
 Ni  6.430909  0.836846  6.300407
 Ni  6.449141  2.652857  4.465036
%endblock positions_abs_intermediate 
     kpoint_mp_grid 1 1 1 
     fix_com : false