#######################################################
#CASTEP cell file: /home/u2093113/Documents/kART/barriers/CASTEP/castep.cell
#Created using the Atomic Simulation Environment (ASE)#
#######################################################

%BLOCK LATTICE_CART
14.464828  0.000000  0.000000
 0.000000 14.464828  0.000000
 0.000000  0.000000 14.464828
%ENDBLOCK LATTICE_CART

%BLOCK POSITIONS_ABS
Ni  8.216337  2.706698  6.358652
Ni 10.041348  0.903393  6.361708
Ni 10.033493  2.722854  4.566902
Al  8.253647  0.899665  4.573656
Ni 11.827550  2.725010  6.365829
Ni 13.627316  0.916990  6.361893
Ni 13.629077  2.723238  4.553349
Al 11.833728  0.914255  4.554542
Ni  8.204458  6.409969  6.354764
Ni 10.017851  4.541981  6.365372
Ni 10.043592  6.337454  4.557351
Al  8.243977  4.542747  4.582626
Ni 11.842942  6.329648  6.362303
Ni 13.631355  4.525015  6.362796
Ni 13.637071  6.326422  4.549875
Al 11.829930  4.526741  4.557889
Ni  8.213580  9.906864  6.353227
Ni 10.069261  8.149088  6.352990
Ni 10.060553  9.951144  4.545952
Al  8.294171  8.162319  4.529179
Ni 11.861497  9.947868  6.354577
Ni 13.639986  8.133620  6.358924
Ni 13.645909  9.944248  4.545772
Al 11.851436  8.136393  4.545352
Ni  8.229625 13.552812  6.349825
Ni 10.059556 11.742796  6.346441
Ni 10.043043 13.558236  4.552115
Al  8.264096 11.738495  4.569642
Ni 11.843832 13.564946  6.356805
Ni 13.641662 11.759018  6.357665
Ni 13.637901 13.573424  4.549873
Al 11.852726 11.757904  4.544714
Ni  6.505047  2.688880 11.762546
Ni 10.017017  0.896029  9.961201
Ni 10.017006  2.719548  8.161748
Al  8.243608  0.877622  8.144707
Ni 11.812217  2.723402  9.975154
Ni 13.621473  0.918470  9.982126
Ni 13.623821  2.722508  8.173245
Al 11.828049  0.912269  8.170198
Ni  8.191031  6.394954  9.970192
Ni  9.998039  4.538145  9.962873
Ni 10.039338  6.338155  8.168719
Al  8.229553  4.550312  8.138343
Ni 11.832032  6.327139  9.982213
Ni 13.624826  4.523645  9.982713
Ni 13.634118  6.327573  8.173621
Al 11.823427  4.526884  8.171675
Ni  8.201115  9.947944  9.994945
Ni 10.053028  8.152014  9.990076
Ni 10.073431  9.954895  8.169831
Al  8.336082  8.172906  8.175383
Ni 11.858490  9.946750  9.986189
Ni 13.638080  8.132081  9.985646
Ni 13.642413  9.944708  8.171562
Al 11.850549  8.137549  8.173704
Ni  8.232517 13.498869  9.977757
Ni 10.046690 11.738005  9.982100
Ni 10.049590 13.552110  8.162838
Al  8.300710 11.734578  8.113757
Ni 11.838040 13.564835  9.977592
Ni 13.640922 11.759249  9.984601
Ni 13.631794 13.571627  8.170760
Al 11.852677 11.756080  8.169387
Ni  8.218866  2.722848 13.597824
Ni 10.028713  0.917340 13.603506
Ni 10.002736  2.723080 11.774209
Al  8.283309  0.879577 11.774251
Ni 11.813653  2.726582 13.595360
Ni 13.624764  0.923610 13.595668
Ni 13.619589  2.724163 11.788002
Al 11.815243  0.921906 11.784760
Ni  8.200850  6.337165 13.606946
Ni 10.005134  4.528300 13.599735
Ni 10.026689  6.331095 11.787806
Al  8.238765  4.543428 11.767731
Ni 11.829570  6.319618 13.599590
Ni 13.625731  4.522034 13.594567
Ni 13.630320  6.322473 11.791874
Al 11.809287  4.522164 11.784127
Ni  8.239904  9.931251 13.617860
Ni 10.045999  8.128410 13.612285
Ni 10.070055  9.937398 11.802048
Al  8.288270  8.149871 11.813101
Ni 11.855045  9.937322 13.608311
Ni 13.640800  8.128133 13.599338
Ni 13.642006  9.943470 11.795587
Al 11.844560  8.128933 11.797246
Ni  8.258750 13.552211 13.613720
Ni 10.078677 11.749357 13.624812
Ni 10.062723 13.562039 11.791626
Al  8.342258 11.736314 11.864580
Ni 11.841397 13.578148 13.606490
Ni 13.638594 11.760025 13.599753
Ni 13.626046 13.575781 11.791189
Al 11.848074 11.755517 11.795434
Ni  8.215814  2.724400  2.789711
Ni 10.027383  0.909712  2.763117
Ni 10.011302  2.728661  0.952472
Al  8.270043  0.906063  0.962854
Ni 11.825231  2.723722  2.750116
Ni 13.632197  0.920350  2.743380
Ni 13.626085  2.723955  0.936600
Al 11.822034  0.922989  0.945303
Ni  8.213258  6.352506  2.765736
Ni 10.020735  4.530965  2.761574
Ni 10.024273  6.326497  0.946460
Al  8.229493  4.536794  0.971016
Ni 11.837277  6.324516  2.744575
Ni 13.631969  4.523241  2.744239
Ni 13.636011  6.321631  0.936947
Al 11.819892  4.522251  0.941162
Ni  8.224554  9.951154  2.742358
Ni 10.051514  8.139809  2.740464
Ni 10.054225  9.938792  0.948332
Al  8.246504  8.138080  0.949210
Ni 11.853752  9.946319  2.741903
Ni 13.642426  8.131417  2.740627
Ni 13.647253  9.942931  0.938599
Al 11.845256  8.127352  0.941403
Ni  8.219571 13.541136  2.758624
Ni 10.044465 11.753159  2.747239
Ni 10.044602 13.566690  0.956112
Al  8.271398 11.741877  0.934952
Ni 11.842905 13.571728  2.748176
Ni 13.647228 11.759841  2.741343
Ni 13.637630 13.578335  0.938696
Al 11.852428 11.758946  0.949108
Ni  0.999900  2.662968  6.280363
Ni  2.762956  0.868784  6.297541
Al  4.755334 13.538924  2.699780
Ni  0.920489  0.854974  4.479607
Ni  4.504459  2.738857  6.350790
Ni  6.404472  0.877834  6.358039
Ni  4.582680  4.528824  4.558501
Ni  4.625852  0.862782  4.541129
Al  0.817575 11.728447  0.856640
Ni  0.919965  4.564202  4.442296
Ni  0.925375  6.397839  6.339064
Al  2.789771 13.645159  0.826175
Ni  4.549771  6.346619  6.325838
Ni  6.423802  4.550492  6.329383
Ni  6.424458  6.399091  4.591881
Ni  2.738060  6.393440  4.527244
Ni  0.957601  9.960849  6.336258
Ni  4.584447  8.197538  4.582285
Ni  2.753016  9.984263  4.495267
Al  4.654078  9.964942  2.777872
Ni  4.541983 10.017341  6.352712
Ni  6.409683  6.399253  8.145990
Ni  6.428044  9.950890  4.577995
Al  2.795906  9.884594  0.816087
Ni  0.939458 13.523380  6.298137
Ni  4.571430 11.788444  4.519642
Ni  0.964272 11.745540  4.452095
Ni  4.550002 13.517580  6.323139
Ni  6.412826 11.741571  6.361448
Ni  6.434412 13.544915  4.565022
Ni  2.796788 11.778938  2.612781
Ni  0.933700  2.667490  9.973046
Ni  2.793462  0.874662  9.995088
Al  4.601224  6.433988  2.839764
Ni  0.901016  0.830476  8.146397
Al  1.075823  6.408175  2.624024
Ni  6.488712  0.840113  9.951588
Ni  6.413761  2.700558  8.116848
Ni  4.619673  0.877313  8.138904
Ni  1.046691  6.326778  9.993644
Ni  2.836549  4.403890  9.875156
Ni  2.774512  6.290028  8.126735
Ni  0.951399  4.504560  8.138244
Ni  4.591177  6.252611  9.965465
Ni  8.207828  2.705908  9.939281
Al  2.863831 13.633772 11.927316
Ni  6.455660  4.532725  9.932917
Ni  0.969762 11.791754  8.175908
Al  1.005342  8.094281 11.780513
Ni  1.029212  8.213111  8.222696
Ni  4.564929 10.028087  9.991028
Ni  6.398591  9.989254  8.189141
Ni  2.779466 10.026706  8.169191
Al  4.707355  6.346527 13.591836
Al  2.807914  6.097580 11.762716
Ni  2.818979 11.859354 10.023224
Ni  2.756256 13.580485  8.136498
Ni  4.606592 13.579643 10.001025
Ni  6.423900 13.507627  8.165469
Al  4.789993  2.638882 13.556415
Al  4.740241  4.488365  1.044902
Al  2.755409  2.700330 11.699597
Al  0.914002  2.747493 13.606803
Ni  0.931025  0.916101 11.816051
Ni  6.515864  0.876074 13.596106
Ni  4.672206  0.917982 11.785677
Al  4.594299 11.813950  8.156752
Al  6.375213 11.751334 10.074493
Al  2.690307 11.708846  6.319374
Ni  0.974342  6.264696 13.587752
Al  0.978616 13.587237 10.028668
Ni  0.939153  4.484091 11.785033
Ni  2.877605  4.381965 13.648741
Ni  6.451202  4.530023 13.602667
Ni  6.430968  6.352568 11.755406
Ni  4.670499  4.443352 11.773542
Al  6.209964  8.173681  9.896033
Ni  0.955128  9.911113 13.551369
Ni  2.805735  8.049305 13.525737
Ni  2.785470  9.935718 11.793358
Al  1.048479 10.111466 10.023751
Ni  4.606125  9.915061 13.579904
Ni  6.439050  8.149574 13.568871
Ni  6.420291  9.927225 11.786739
Ni  4.573037  8.091445 11.752407
Al  3.010689  8.133083  9.772048
Ni  0.944157 13.592133 13.578764
Ni  2.774668 11.758078 13.630242
Al  4.709363  4.576273  8.101425
Ni  0.994634 11.804821 11.823471
Ni  4.643737 13.600741 13.627567
Ni  6.453244 11.736565 13.573336
Ni  6.452752 13.545175 11.809473
Ni  4.606981 11.778576 11.844467
Ni  0.945055  2.685360  2.698906
Ni  2.813236  0.819669  2.703717
Ni  2.804991  1.034435 13.596989
Ni  0.915036  0.906469  0.876688
Ni  4.630887  2.694114  2.766102
Ni  6.474027  0.896908  2.770156
Ni  6.470653  2.706286  0.972792
Ni  4.682346  0.917168  0.943214
Al  4.772104  2.611697  9.974979
Ni  0.976690  8.184146  4.500783
Ni  2.804693  4.533529  2.753411
Ni  2.886157  6.290629  0.902080
Ni  0.954767  4.519745  0.932638
Al  2.670914  2.560998  8.146947
Ni  6.396980  2.697651  4.591843
Ni  6.412642  6.348323  0.978430
Ni  6.433588  4.552820  2.834040
Al  2.705045 13.598586  4.467252
Ni  0.989453  9.925637  2.636964
Ni  2.824160  8.189464  2.702104
Al  6.208086  8.199614  6.454352
Ni  0.971807  8.121402  0.855491
Al  2.805625  8.181482  6.404106
Ni  6.427012  8.171484  2.775314
Ni  6.428205  9.950291  0.928966
Ni  4.643187  8.150493  0.931268
Al  2.762432  2.605843  4.436725
Al  2.779898  2.632737  1.073758
Ni  0.958631 13.542240  2.631151
Al  2.664100  4.616832  6.256425
Ni  4.635914 11.737509  0.909671
Ni  6.451875 11.728043  2.754801
Ni  6.465610 13.540247  0.924294
%ENDBLOCK POSITIONS_ABS

FIX_ALL_CELL: TRUE
KPOINT_MP_GRID: 1 1 1
