#######################################################
#CASTEP cell file: /home/u2093113/Documents/kART/CASTEP/castep.cell
#Created using the Atomic Simulation Environment (ASE)#
#######################################################

%BLOCK LATTICE_CART
14.464828  0.000000  0.000000
 0.000000 14.464828  0.000000
 0.000000  0.000000 14.464828
%ENDBLOCK LATTICE_CART

%BLOCK POSITIONS_ABS
Al  8.223443  2.701349  2.732376
Al 11.842907  2.703528  2.715568
Al  8.240436  6.341251  2.742903
Al 11.854577  6.337302  2.725450
Al  8.298566  9.943492  2.645472
Al 11.881422  9.936368  2.695393
Al  8.238614 13.553016  2.724964
Al 11.855070 13.559672  2.697179
Al  8.219820  2.686857  6.312621
Al 11.843711  2.723053  6.302597
Al  8.213990  6.330029  6.295772
Al 11.859121  6.325836  6.316272
Al  8.395125 10.005706  6.336419
Al 11.872010  9.926201  6.326563
Al  8.296000 13.525686  6.252279
Al 11.876707 13.565027  6.304877
Al  8.248163  2.670182  9.919284
Al 11.829880  2.729754  9.929602
Al  8.233498  6.345669  9.943890
Al 11.826654  6.317146  9.924391
Al  8.295747  9.951079  9.999888
Al 11.895649  9.920767  9.947951
Al  8.346310 13.541361 10.033578
Al 11.839764 13.558473  9.946469
Al  8.254478  2.701969 13.577061
Al 11.812940  2.725342 13.570365
Al  8.209079  6.326164 13.581420
Al 11.837551  6.325463 13.566187
Al  8.228565  9.939007 13.572857
Al 11.840957  9.919904 13.574331
Al  8.239970 13.554544 13.553266
Al 11.871942 13.551726 13.576058
Al  4.768173  0.896453  0.890812
Al  0.824684 13.578849 13.542924
Al  2.800289  0.997469 13.439510
Al  4.668097 11.787838  0.966915
Al  2.782588 11.660096 13.465547
Al  4.603911  8.237414  1.017770
Al  0.987075  8.127270  0.877078
Al  2.852588  0.939033 10.051926
Al  0.866455  9.909360 10.068984
Al  4.722875  8.202886 11.752189
Al  2.777574  7.885490  9.949112
Al  4.788918  4.412307 11.686277
Al  4.702072  6.278591 13.674562
Al  2.735880  4.522166  9.826464
Al  0.802517  4.510659 11.759444
Al  4.552994 13.555327  6.323545
Al  6.369859 13.548727  8.240662
Al  2.647450 13.484059  4.490374
Al  0.910552  0.912254  8.068187
Al  6.258194  9.975756  8.131454
Al  0.896936 11.887082  8.081965
Al  2.879148  9.939168  8.042357
Al  5.475060  7.255286  6.297043
Al  4.812620  4.486857  8.089492
Al  2.697093  4.386955  6.303991
Al  2.703726  0.956537  2.684121
Al  6.291136  9.981279  4.507178
Al  2.756868  9.958159  4.503020
Al  2.800416  4.427844  2.627206
Al  2.740254  4.408502 13.737336
Al  2.762587  6.449222  4.486026
Ni  8.216481  4.508025  4.498283
Ni 10.038772  2.703624  4.518400
Ni 10.047035  4.524243  2.732981
Ni 11.857290  4.525439  4.517143
Ni 13.658296  2.719263  4.496603
Ni 13.638366  4.533557  2.714888
Ni  8.189630  8.219622  4.577645
Ni 10.034629  6.339863  4.526388
Ni 10.057134  8.133556  2.723391
Ni 11.867828  8.127705  4.529773
Ni 13.683312  6.326002  4.519323
Ni 13.671998  8.135038  2.717777
Ni  8.240568 11.688418  4.517176
Ni 10.082102  9.940151  4.498977
Ni 10.046544 11.747876  2.701810
Ni 11.866076 11.750706  4.488522
Ni 13.656718  9.935225  4.514208
Ni 13.670587 11.739619  2.686422
Ni  8.223306  0.895553  4.533312
Ni 10.066454 13.548710  4.497488
Ni 10.028525  0.897253  2.711275
Ni 11.849171  0.903282  4.490181
Ni 13.677238 13.562912  4.481235
Ni 13.663805  0.900493  2.698969
Ni  6.516985  4.484911  9.923196
Ni 10.030486  2.710968  8.109584
Ni 10.026803  4.519071  6.302515
Ni 11.826151  4.533516  8.096114
Ni 13.644401  2.736719  8.108330
Ni 13.669735  4.521092  6.299309
Ni  8.187467  8.233365  8.062901
Ni 10.002730  6.335160  8.111340
Ni 10.043580  8.131937  6.323611
Ni 11.855255  8.109319  8.128446
Ni 13.673327  6.324222  8.116030
Ni 13.684696  8.128431  6.335308
Ni  8.238169 11.758809  8.151571
Ni 10.084431  9.944323  8.154519
Ni 10.100301 11.765426  6.324383
Ni 11.886824 11.730493  8.136642
Ni 13.702771  9.919877  8.135486
Ni 13.647384 11.751540  6.288253
Ni  8.242128  0.809711  8.126887
Ni 10.083081 13.540878  8.128479
Ni 10.052897  0.891113  6.319272
Ni 11.847320  0.933655  8.122171
Ni 13.604318 13.594416  8.146855
Ni 13.618369  0.910691  6.273650
Ni  8.226071  4.510617 11.764558
Ni 10.034764  2.717068 11.748823
Ni 10.014379  4.521661  9.926344
Ni 11.843135  4.525301 11.747960
Ni 13.617598  2.683723 11.746240
Ni 13.611567  4.515271  9.888834
Ni  8.205164  8.135392 11.761196
Ni 10.018773  6.324908 11.752837
Ni 10.031038  8.128739  9.931797
Ni 11.825507  8.118907 11.745026
Ni 13.631061  6.348164 11.747928
Ni 13.661715  8.085487  9.940918
Ni  8.251563 11.750021 11.761778
Ni 10.054331  9.925679 11.770399
Ni 10.076377 11.731488  9.949620
Ni 11.853524 11.733984 11.763404
Ni 13.633803  9.906810 11.800518
Ni 13.663477 11.765981  9.962463
Ni  8.262750  0.885567 11.746937
Ni 10.082936 13.550095 11.784534
Ni 10.060967  0.904854  9.930210
Ni 11.826461  0.907433 11.753413
Ni 13.628108 13.577821 11.724014
Ni 13.628905  0.918767  9.949964
Ni  8.239128  4.525233  0.949456
Ni 10.029127  2.709457  0.926032
Ni 10.028372  4.528924 13.572660
Ni 11.822872  4.515811  0.929725
Ni 13.641228  2.717974  0.912236
Ni 13.608555  4.521532 13.604941
Ni  8.229529  8.118964  0.925264
Ni 10.040789  6.331640  0.923028
Ni 10.026653  8.119556 13.567590
Ni 11.859804  8.125641  0.905238
Ni 13.646532  6.314328  0.908546
Ni 13.648026  8.106836 13.543224
Ni  8.232717 11.759327  0.895250
Ni 10.056276  9.931008  0.892966
Ni 10.049013 11.742433 13.568094
Ni 11.843538 11.745715  0.904503
Ni 13.672242  9.951254  0.873142
Ni 13.640296 11.717793 13.551132
Ni  8.219603  0.899260  0.916187
Ni 10.038527 13.557435  0.903970
Ni 10.041604  0.900621 13.573746
Ni 11.840032  0.908545  0.915443
Ni 13.636188 13.549394  0.917492
Ni 13.598991  0.942471 13.562401
Ni  1.007200  4.528596  4.482343
Ni  2.793011  2.686692  4.499864
Ni  0.947615  2.727396  2.690841
Ni  4.539104  4.563100  4.559744
Ni  6.370993  2.691614  4.533791
Ni  4.587229  6.288226  2.720439
Ni  4.633030  2.663776  2.727383
Ni  0.976528  6.306444  2.704804
Ni  0.955060  8.150792  4.513295
Ni  4.595284  8.141380  4.421108
Ni  6.400244  6.329177  4.458582
Ni  6.434790  8.175708  2.738006
Ni  2.747767  8.159148  2.678767
Ni  0.938795 11.720766  4.512469
Ni  4.550008 10.002166  2.705456
Ni  2.754374 11.769939  2.661576
Ni  4.570979 11.815008  4.505111
Ni  4.579741  9.935970  6.280421
Ni  6.430135 11.756076  2.735470
Ni  0.969403  0.913652  4.488615
Ni  4.571784 13.602926  2.717715
Ni  0.988082 13.555629  2.648464
Ni  4.575901  0.858815  4.513770
Ni  6.409846 13.530689  4.503892
Ni  6.421482  0.881364  2.765863
Ni  2.785030 13.601277  0.816089
Ni  0.952740  4.499947  8.093370
Ni  2.808659  2.679069  8.131122
Ni  0.943687  2.684100  6.283375
Ni  6.445899  2.626654  8.111130
Ni  6.412807  4.530964  6.262763
Ni  4.602385  2.692212  6.308283
Ni  1.054806  8.142051  8.155981
Ni  2.872820  6.214812  8.017449
Ni  2.813046  8.118510  6.317915
Ni  1.018943  6.324784  6.311841
Ni  4.582314  8.102168  8.192415
Ni  8.218973  4.511195  8.090973
Ni  6.457517  6.361815  8.161839
Ni  0.929934 13.595224  6.291879
Ni  0.974984  9.937891  6.343417
Ni  4.563207 11.807109  8.147812
Ni  6.403983 11.750816  6.333322
Ni  2.753348 11.776231  6.330955
Ni  2.753554 13.628904  8.181732
Ni  2.783767  0.901489  6.282623
Ni  4.614785  0.901466  8.117148
Ni  6.401878  0.821848  6.330127
Ni  0.954399  2.706670  9.921039
Ni  6.469462  2.649346 11.757370
Ni  4.652305  2.714289  9.917425
Ni  1.014622  8.046443 11.765517
Ni  0.955278  6.263943  9.926318
Ni  2.867756  6.119176 11.846667
Ni  6.381948  6.325226 11.759430
Ni  6.442445  8.174067  9.911217
Ni  4.653497  6.272526  9.924853
Ni  0.958136 11.764300 11.761906
Ni  2.781902  9.859654 11.697685
Ni  2.700359 11.718857  9.894806
Ni  4.596296 11.736205 11.718753
Ni  6.423556  9.979866 11.765320
Ni  6.407249 11.735864  9.963732
Ni  4.530448  9.949965  9.967732
Ni  0.950474  0.953213 11.759560
Ni  2.758774 13.543913 11.808181
Ni  0.978583 13.620436  9.996212
Ni  4.649046  0.915539 11.756952
Ni  6.403725 13.548730 11.740509
Ni  6.418515  0.868777  9.951930
Ni  4.561509 13.542756  9.990726
Ni  0.930831  4.515840  0.926042
Ni  2.816203  2.594956  0.893553
Ni  2.783645  2.899036 11.733898
Ni  0.934478  2.716977 13.567241
Ni  4.645402  4.456015  0.921042
Ni  6.441491  2.729740  0.916266
Ni  6.450583  4.500045 13.594797
Ni  4.664054  2.700178 13.557320
Ni  0.970310  9.961625  2.686330
Ni  2.817718  6.328618  0.890489
Ni  2.885998  8.103945 13.517141
Ni  0.989457  6.292640 13.565333
Ni  6.387543  4.495748  2.737427
Ni  6.389093  8.129312 13.609758
Ni  6.408839  6.313482  0.971254
Ni  0.990242 11.753385  0.847519
Ni  2.772875  9.980014  0.876179
Ni  0.989030  9.894171 13.509205
Ni  6.429211  9.958253  0.910907
Ni  6.414313 11.755586 13.532563
Ni  4.633361  9.992479 13.568268
Ni  0.941244  0.906309  0.863016
Ni  4.627090 13.544723 13.527783
Ni  6.442221 13.548014  0.899156
Ni  6.462590  0.886890 13.524945
%ENDBLOCK POSITIONS_ABS

