#######################################################
#CASTEP cell file: /home/u2093113/Documents/kART/CASTEP/castep.cell
#Created using the Atomic Simulation Environment (ASE)#
#######################################################

%BLOCK LATTICE_CART
14.464828  0.000000  0.000000
 0.000000 14.464828  0.000000
 0.000000  0.000000 14.464828
%ENDBLOCK LATTICE_CART

%BLOCK POSITIONS_ABS
Al  8.228747  2.691071  2.730266
Al 11.848336  2.695803  2.716027
Al  8.228219  6.336259  2.763291
Al 11.858005  6.333294  2.727360
Al  8.301274  9.934514  2.651373
Al 11.879534  9.929843  2.701720
Al  8.244090 13.554698  2.722966
Al 11.857694 13.551577  2.701124
Al  8.223191  2.678162  6.314504
Al 11.853888  2.711508  6.307051
Al  8.267428  6.259988  6.294310
Al 11.861023  6.319826  6.317857
Al  8.383343 10.025019  6.338081
Al 11.870711  9.923025  6.328780
Al  8.297204 13.528155  6.256140
Al 11.878589 13.558666  6.311856
Al  8.249664  2.666058  9.924679
Al 11.833112  2.722999  9.935777
Al  8.230562  6.338294  9.936697
Al 11.828244  6.314479  9.926939
Al  8.296670  9.940043  9.999340
Al 11.891033  9.914935  9.946792
Al  8.346468 13.541010 10.039530
Al 11.837438 13.550274  9.948548
Al  8.259641  2.700896 13.580140
Al 11.813521  2.720544 13.571512
Al  8.209514  6.318837 13.586012
Al 11.835345  6.323937 13.570886
Al  8.230188  9.931559 13.577364
Al 11.838579  9.912218 13.577852
Al  8.245756 13.550503 13.555308
Al 11.874922 13.543417 13.576178
Al  4.765687  0.893519  0.887232
Al  0.824838 13.571554 13.541727
Al  2.802085  0.995463 13.439769
Al  4.667619 11.783998  0.961656
Al  2.784250 11.651041 13.465983
Al  4.605387  8.231583  1.024530
Al  0.987495  8.121540  0.882190
Al  2.857299  0.940682 10.057941
Al  0.869705  9.904180 10.069144
Al  4.726879  8.191854 11.751283
Al  2.777982  7.878342  9.953070
Al  4.791635  4.410127 11.688254
Al  4.704848  6.274376 13.677937
Al  2.740038  4.523101  9.824544
Al  0.803846  4.508465 11.761386
Al  4.550310 13.560715  6.328394
Al  6.370754 13.554204  8.246184
Al  2.645375 13.483274  4.493113
Al  0.912600  0.906702  8.075105
Al  6.249810 10.010348  8.164403
Al  0.904871 11.880152  8.085173
Al  2.891620  9.936284  8.044247
Al  6.068316  7.871694  6.294902
Al  4.801974  4.520833  8.056080
Al  2.693061  4.383554  6.305359
Al  2.698623  0.949023  2.680688
Al  6.284246 10.029914  4.475163
Al  2.765819  9.955862  4.510749
Al  2.799823  4.426344  2.631055
Al  2.741184  4.407401 13.740403
Al  2.804408  6.441092  4.518928
Ni  8.222724  4.487954  4.492643
Ni 10.048084  2.693200  4.519934
Ni 10.052096  4.517413  2.735453
Ni 11.864084  4.516975  4.517734
Ni 13.661244  2.712266  4.498869
Ni 13.641638  4.530973  2.715885
Ni  8.154858  8.209156  4.627777
Ni 10.042820  6.330850  4.526610
Ni 10.046535  8.124313  2.738635
Ni 11.866904  8.123555  4.531453
Ni 13.685846  6.322495  4.522272
Ni 13.677029  8.131179  2.724555
Ni  8.240564 11.694191  4.513923
Ni 10.071055  9.931466  4.506521
Ni 10.048106 11.743618  2.706370
Ni 11.865236 11.742586  4.494792
Ni 13.661431  9.928234  4.520213
Ni 13.672121 11.731611  2.691745
Ni  8.226650  0.892542  4.532946
Ni 10.069319 13.546202  4.501763
Ni 10.035791  0.891465  2.712331
Ni 11.853706  0.894878  4.492657
Ni 13.681214 13.555313  4.487114
Ni 13.667316  0.893612  2.700185
Ni  6.510865  4.479336  9.915250
Ni 10.038578  2.701329  8.115003
Ni 10.045617  4.496292  6.304156
Ni 11.831532  4.526804  8.100152
Ni 13.646093  2.728823  8.115210
Ni 13.674851  4.517332  6.302582
Ni  8.158689  8.226776  8.018546
Ni 10.008658  6.328418  8.114857
Ni 10.049498  8.129711  6.324713
Ni 11.853300  8.105949  8.131147
Ni 13.675668  6.321817  8.116847
Ni 13.687878  8.125822  6.337246
Ni  8.233579 11.759760  8.159742
Ni 10.072976  9.936637  8.151855
Ni 10.098331 11.764192  6.327838
Ni 11.883085 11.722906  8.139707
Ni 13.704867  9.916433  8.136506
Ni 13.652395 11.743923  6.294246
Ni  8.240316  0.811255  8.132094
Ni 10.080199 13.536555  8.132531
Ni 10.056592  0.886767  6.325052
Ni 11.851942  0.923973  8.130390
Ni 13.608864 13.584597  8.153423
Ni 13.621184  0.900641  6.279139
Ni  8.224724  4.507302 11.762628
Ni 10.037362  2.712863 11.752569
Ni 10.019244  4.516274  9.930778
Ni 11.845118  4.522731 11.752619
Ni 13.620354  2.679681 11.748974
Ni 13.611730  4.511448  9.892456
Ni  8.204533  8.126439 11.763723
Ni 10.017214  6.320250 11.753342
Ni 10.019543  8.121857  9.924303
Ni 11.819958  8.114895 11.744517
Ni 13.629346  6.346718 11.751495
Ni 13.661917  8.084499  9.943036
Ni  8.254400 11.743646 11.766501
Ni 10.052074  9.918086 11.771771
Ni 10.072550 11.724699  9.950471
Ni 11.852174 11.725020 11.763648
Ni 13.631838  9.899274 11.799963
Ni 13.665122 11.758461  9.963583
Ni  8.264713  0.884219 11.752247
Ni 10.083956 13.543626 11.787775
Ni 10.062180  0.898733  9.935002
Ni 11.827718  0.900160 11.755613
Ni 13.631282 13.571107 11.724416
Ni 13.634131  0.910836  9.955020
Ni  8.240132  4.521795  0.956762
Ni 10.033701  2.704526  0.929485
Ni 10.028283  4.526175 13.576196
Ni 11.823650  4.512273  0.931177
Ni 13.643549  2.714136  0.912199
Ni 13.610727  4.520552 13.608223
Ni  8.228105  8.110436  0.932437
Ni 10.038502  6.326998  0.932951
Ni 10.025203  8.113405 13.572724
Ni 11.858162  8.120891  0.913171
Ni 13.649909  6.311391  0.913118
Ni 13.647037  8.103093 13.546189
Ni  8.235788 11.754190  0.895495
Ni 10.055587  9.923005  0.900675
Ni 10.052026 11.734760 13.571810
Ni 11.843677 11.738054  0.907481
Ni 13.672496  9.945673  0.878113
Ni 13.640770 11.710513 13.550617
Ni  8.224917  0.895314  0.916024
Ni 10.043264 13.551963  0.907155
Ni 10.045550  0.895156 13.576548
Ni 11.844561  0.901686  0.915296
Ni 13.636237 13.541343  0.917460
Ni 13.601400  0.935868 13.561817
Ni  1.006554  4.525095  4.485750
Ni  2.786333  2.677828  4.499868
Ni  0.947029  2.723550  2.689130
Ni  4.541543  4.530189  4.546673
Ni  6.370196  2.677325  4.526517
Ni  4.590324  6.279327  2.731277
Ni  4.627447  2.650615  2.720688
Ni  0.985466  6.302016  2.716974
Ni  0.967100  8.140929  4.517869
Ni  4.599149  8.145714  4.420021
Ni  6.377191  6.291269  4.480435
Ni  6.433978  8.167298  2.745236
Ni  2.749529  8.150453  2.687790
Ni  0.944059 11.715612  4.518392
Ni  4.541154 10.005784  2.699775
Ni  2.752004 11.769082  2.660670
Ni  4.565151 11.827809  4.502961
Ni  4.604831  9.947282  6.285298
Ni  6.431101 11.767055  2.722411
Ni  0.969993  0.906349  4.491437
Ni  4.568928 13.604381  2.710359
Ni  0.987249 13.548513  2.648248
Ni  4.572880  0.854318  4.513432
Ni  6.410986 13.533793  4.499937
Ni  6.422118  0.875170  2.760997
Ni  2.782283 13.592737  0.810826
Ni  0.950586  4.494388  8.097728
Ni  2.806785  2.677101  8.132522
Ni  0.941846  2.676905  6.288060
Ni  6.438814  2.631389  8.113693
Ni  6.425564  4.499828  6.256193
Ni  4.601353  2.695415  6.309881
Ni  1.058153  8.141905  8.159650
Ni  2.857882  6.218492  8.026554
Ni  2.831695  8.121666  6.327810
Ni  1.030698  6.327432  6.312453
Ni  4.580827  8.081907  8.184804
Ni  8.229893  4.491859  8.099009
Ni  6.468469  6.335092  8.148585
Ni  0.933555 13.591717  6.298252
Ni  0.981825  9.931325  6.347809
Ni  4.560153 11.817172  8.156718
Ni  6.401366 11.775245  6.337743
Ni  2.759060 11.775163  6.336466
Ni  2.757493 13.630793  8.189135
Ni  2.783983  0.901478  6.286282
Ni  4.615605  0.903121  8.122180
Ni  6.401187  0.823080  6.331117
Ni  0.956397  2.702950  9.925633
Ni  6.471393  2.649379 11.759948
Ni  4.651208  2.722645  9.908966
Ni  1.015683  8.041093 11.767566
Ni  0.950433  6.260383  9.931231
Ni  2.873591  6.114446 11.849051
Ni  6.383920  6.317996 11.758684
Ni  6.447028  8.162042  9.907468
Ni  4.657535  6.266947  9.912997
Ni  0.959856 11.755912 11.763020
Ni  2.784196  9.851548 11.702333
Ni  2.702971 11.714791  9.898645
Ni  4.598749 11.728298 11.721521
Ni  6.427361  9.969889 11.764582
Ni  6.409508 11.740873  9.976833
Ni  4.528011  9.940400  9.973383
Ni  0.955769  0.948377 11.761632
Ni  2.762912 13.538485 11.809418
Ni  0.981767 13.613633 10.000918
Ni  4.652495  0.918190 11.759729
Ni  6.408146 13.549817 11.748059
Ni  6.418634  0.872607  9.956456
Ni  4.566074 13.543372  9.999152
Ni  0.933558  4.515243  0.928073
Ni  2.813109  2.590894  0.891967
Ni  2.785981  2.902221 11.735749
Ni  0.935128  2.713498 13.567768
Ni  4.643849  4.451463  0.923422
Ni  6.443475  2.724430  0.914883
Ni  6.453040  4.496514 13.599235
Ni  4.665393  2.699272 13.559752
Ni  0.974169  9.956463  2.691468
Ni  2.821120  6.327270  0.895154
Ni  2.888199  8.099747 13.520536
Ni  0.992449  6.291113 13.567327
Ni  6.384829  4.481931  2.738180
Ni  6.391589  8.121625 13.613703
Ni  6.408484  6.306680  0.978326
Ni  0.989461 11.746590  0.847587
Ni  2.770990  9.972835  0.876428
Ni  0.986703  9.886546 13.510101
Ni  6.430634  9.951171  0.917173
Ni  6.418371 11.747485 13.532878
Ni  4.637571  9.982661 13.568339
Ni  0.940993  0.899013  0.859992
Ni  4.632152 13.541785 13.527246
Ni  6.446628 13.547708  0.893471
Ni  6.467097  0.887499 13.526281
%ENDBLOCK POSITIONS_ABS

