#######################################################
#CASTEP cell file: /home/u2093113/Documents/kART/CASTEP/castep.cell
#Created using the Atomic Simulation Environment (ASE)#
#######################################################

%BLOCK LATTICE_CART
14.464828  0.000000  0.000000
 0.000000 14.464828  0.000000
 0.000000  0.000000 14.464828
%ENDBLOCK LATTICE_CART

%BLOCK POSITIONS_ABS
Al  8.218140  2.711626  2.734487
Al 11.837479  2.711253  2.715110
Al  8.252654  6.346242  2.722515
Al 11.851149  6.341311  2.723539
Al  8.295857  9.952470  2.639571
Al 11.883311  9.942892  2.689067
Al  8.233137 13.551334  2.726963
Al 11.852445 13.567766  2.693233
Al  8.216449  2.695552  6.310737
Al 11.833535  2.734597  6.298143
Al  8.160553  6.400069  6.297234
Al 11.857220  6.331845  6.314687
Al  8.406908  9.986392  6.334758
Al 11.873310  9.929376  6.324347
Al  8.294796 13.523218  6.248419
Al 11.874824 13.571388  6.297898
Al  8.246662  2.674305  9.913888
Al 11.826647  2.736509  9.923427
Al  8.236434  6.353043  9.951083
Al 11.825065  6.319812  9.921843
Al  8.294824  9.962116 10.000436
Al 11.900265  9.926600  9.949111
Al  8.346151 13.541713 10.027626
Al 11.842091 13.566672  9.944390
Al  8.249315  2.703042 13.573982
Al 11.812358  2.730140 13.569218
Al  8.208644  6.333491 13.576827
Al 11.839758  6.326988 13.561487
Al  8.226941  9.946454 13.568350
Al 11.843336  9.927589 13.570810
Al  8.234184 13.558585 13.551224
Al 11.868963 13.560034 13.575938
Al  4.770658  0.899387  0.894392
Al  0.824530 13.586144 13.544121
Al  2.798493  0.999475 13.439251
Al  4.668574 11.791677  0.972174
Al  2.780925 11.669150 13.465110
Al  4.602435  8.243246  1.011010
Al  0.986654  8.133000  0.871965
Al  2.847877  0.937384 10.045911
Al  0.863205  9.914541 10.068824
Al  4.718871  8.213917 11.753096
Al  2.777166  7.892639  9.945154
Al  4.786201  4.414487 11.684300
Al  4.699295  6.282806 13.671186
Al  2.731722  4.521230  9.828384
Al  0.801189  4.512853 11.757502
Al  4.555678 13.549938  6.318695
Al  6.368964 13.543250  8.235140
Al  2.649524 13.484844  4.487636
Al  0.908504  0.917806  8.061269
Al  6.266579  9.941165  8.098504
Al  0.889000 11.894012  8.078756
Al  2.866676  9.942053  8.040468
Al  4.881805  6.638879  6.299184
Al  4.823266  4.452880  8.122904
Al  2.701125  4.390355  6.302623
Al  2.708829  0.964052  2.687554
Al  6.298026  9.932644  4.539193
Al  2.747917  9.960457  4.495292
Al  2.801009  4.429344  2.623356
Al  2.739323  4.409602 13.734270
Al  2.720766  6.457352  4.453123
Ni  8.210237  4.528097  4.503923
Ni 10.029460  2.714047  4.516866
Ni 10.041975  4.531073  2.730508
Ni 11.850495  4.533903  4.516553
Ni 13.655349  2.726261  4.494338
Ni 13.635094  4.536140  2.713891
Ni  8.224402  8.230087  4.527513
Ni 10.026438  6.348876  4.526166
Ni 10.067734  8.142799  2.708148
Ni 11.868753  8.131856  4.528092
Ni 13.680778  6.329510  4.516375
Ni 13.666966  8.138896  2.711000
Ni  8.240572 11.682645  4.520428
Ni 10.093149  9.948836  4.491432
Ni 10.044982 11.752135  2.697251
Ni 11.866916 11.758826  4.482252
Ni 13.652006  9.942215  4.508204
Ni 13.669054 11.747628  2.681098
Ni  8.219962  0.898564  4.533679
Ni 10.063588 13.551217  4.493214
Ni 10.021259  0.903041  2.710218
Ni 11.844635  0.911685  4.487706
Ni 13.673263 13.570511  4.475355
Ni 13.660294  0.907373  2.697752
Ni  6.523105  4.490487  9.931142
Ni 10.022395  2.720606  8.104165
Ni 10.007989  4.541849  6.300874
Ni 11.820770  4.540228  8.092076
Ni 13.642708  2.744615  8.101449
Ni 13.664619  4.524853  6.296036
Ni  8.216246  8.239955  8.107257
Ni  9.996802  6.341902  8.107823
Ni 10.037663  8.134162  6.322509
Ni 11.857210  8.112690  8.125744
Ni 13.670985  6.326627  8.115214
Ni 13.681514  8.131039  6.333369
Ni  8.242760 11.757858  8.143400
Ni 10.095885  9.952008  8.157182
Ni 10.102270 11.766660  6.320927
Ni 11.890563 11.738080  8.133578
Ni 13.700675  9.923321  8.134465
Ni 13.642373 11.759157  6.282260
Ni  8.243939  0.808167  8.121680
Ni 10.085963 13.545201  8.124427
Ni 10.049203  0.895459  6.313492
Ni 11.842699  0.943336  8.113953
Ni 13.599773 13.604234  8.140287
Ni 13.615553  0.920741  6.268160
Ni  8.227418  4.513933 11.766488
Ni 10.032167  2.721274 11.745077
Ni 10.009513  4.527049  9.921909
Ni 11.841152  4.527871 11.743301
Ni 13.614842  2.687764 11.743505
Ni 13.611404  4.519093  9.885212
Ni  8.205794  8.144346 11.758669
Ni 10.020332  6.329566 11.752332
Ni 10.042532  8.135622  9.939292
Ni 11.831056  8.122918 11.745534
Ni 13.632776  6.349611 11.744360
Ni 13.661514  8.086475  9.938800
Ni  8.248726 11.756395 11.757055
Ni 10.056589  9.933272 11.769027
Ni 10.080204 11.738276  9.948770
Ni 11.854874 11.742948 11.763160
Ni 13.635767  9.914347 11.801073
Ni 13.661831 11.773500  9.961343
Ni  8.260786  0.886915 11.741627
Ni 10.081916 13.556563 11.781294
Ni 10.059753  0.910974  9.925418
Ni 11.825204  0.914705 11.751213
Ni 13.624934 13.584536 11.723611
Ni 13.623679  0.926697  9.944909
Ni  8.238124  4.528671  0.942151
Ni 10.024553  2.714387  0.922578
Ni 10.028461  4.531673 13.569125
Ni 11.822093  4.519349  0.928274
Ni 13.638907  2.721812  0.912273
Ni 13.606383  4.522511 13.601658
Ni  8.230954  8.127493  0.918090
Ni 10.043076  6.336282  0.913104
Ni 10.028103  8.125707 13.562457
Ni 11.861445  8.130391  0.897305
Ni 13.643156  6.317265  0.903973
Ni 13.649015  8.110579 13.540259
Ni  8.229647 11.764463  0.895004
Ni 10.056964  9.939011  0.885257
Ni 10.046000 11.750107 13.564378
Ni 11.843399 11.753376  0.901525
Ni 13.671987  9.956834  0.868170
Ni 13.639821 11.725073 13.551646
Ni  8.214289  0.903206  0.916350
Ni 10.033791 13.562908  0.900784
Ni 10.037657  0.906087 13.570944
Ni 11.835503  0.915405  0.915589
Ni 13.636139 13.557444  0.917524
Ni 13.596582  0.949074 13.562985
Ni  1.007845  4.532096  4.478936
Ni  2.799689  2.695556  4.499860
Ni  0.948201  2.731243  2.692552
Ni  4.536666  4.596011  4.572815
Ni  6.371790  2.705904  4.541066
Ni  4.584134  6.297125  2.709602
Ni  4.638612  2.676936  2.734079
Ni  0.967590  6.310872  2.692634
Ni  0.943020  8.160656  4.508721
Ni  4.591418  8.137046  4.422196
Ni  6.423298  6.367085  4.436729
Ni  6.435602  8.184118  2.730777
Ni  2.746005  8.167844  2.669744
Ni  0.933530 11.725921  4.506547
Ni  4.558863  9.998547  2.711138
Ni  2.756745 11.770795  2.662482
Ni  4.576806 11.802206  4.507260
Ni  4.554651  9.924659  6.275544
Ni  6.429170 11.745097  2.748529
Ni  0.968814  0.920954  4.485793
Ni  4.574640 13.601471  2.725071
Ni  0.988915 13.562745  2.648680
Ni  4.578922  0.863312  4.514107
Ni  6.408705 13.527585  4.507846
Ni  6.420845  0.887557  2.770730
Ni  2.787778 13.609817  0.821351
Ni  0.954894  4.505506  8.089011
Ni  2.810533  2.681038  8.129723
Ni  0.945527  2.691294  6.278689
Ni  6.452984  2.621918  8.108566
Ni  6.400050  4.562100  6.269334
Ni  4.603416  2.689010  6.306685
Ni  1.051459  8.142196  8.152313
Ni  2.887758  6.211132  8.008344
Ni  2.794398  8.115355  6.308021
Ni  1.007188  6.322137  6.311228
Ni  4.583802  8.122429  8.200025
Ni  8.208054  4.530531  8.082937
Ni  6.446564  6.388538  8.175092
Ni  0.926312 13.598731  6.285506
Ni  0.968143  9.944456  6.339024
Ni  4.566261 11.797046  8.138906
Ni  6.406600 11.726388  6.328901
Ni  2.747635 11.777300  6.325444
Ni  2.749615 13.627015  8.174329
Ni  2.783551  0.901499  6.278964
Ni  4.613965  0.899811  8.112116
Ni  6.402569  0.820617  6.329137
Ni  0.952401  2.710391  9.916445
Ni  6.467531  2.649313 11.754792
Ni  4.653402  2.705933  9.925883
Ni  1.013562  8.051793 11.763467
Ni  0.960123  6.267502  9.921405
Ni  2.861921  6.123907 11.844283
Ni  6.379976  6.332456 11.760175
Ni  6.437863  8.186092  9.914966
Ni  4.649459  6.278105  9.936710
Ni  0.956416 11.772688 11.760793
Ni  2.779609  9.867761 11.693037
Ni  2.697748 11.722923  9.890967
Ni  4.593843 11.744111 11.715985
Ni  6.419752  9.989842 11.766058
Ni  6.404990 11.730856  9.950630
Ni  4.532885  9.959530  9.962080
Ni  0.945178  0.958049 11.757488
Ni  2.754636 13.549340 11.806944
Ni  0.975398 13.627240  9.991506
Ni  4.645597  0.912887 11.754175
Ni  6.399305 13.547644 11.732958
Ni  6.418397  0.864948  9.947405
Ni  4.556944 13.542139  9.982299
Ni  0.928104  4.516437  0.924010
Ni  2.819298  2.599019  0.895139
Ni  2.781308  2.895850 11.732047
Ni  0.933828  2.720456 13.566714
Ni  4.646956  4.460568  0.918662
Ni  6.439508  2.735051  0.917648
Ni  6.448126  4.503576 13.590359
Ni  4.662714  2.701083 13.554887
Ni  0.966451  9.966787  2.681191
Ni  2.814316  6.329965  0.885824
Ni  2.883797  8.108144 13.513745
Ni  0.986466  6.294166 13.563339
Ni  6.390257  4.509564  2.736675
Ni  6.386598  8.136999 13.605812
Ni  6.409195  6.320283  0.964183
Ni  0.991024 11.760181  0.847452
Ni  2.774759  9.987193  0.875930
Ni  0.991357  9.901797 13.508308
Ni  6.427788  9.965334  0.904642
Ni  6.410254 11.763688 13.532247
Ni  4.629151 10.002297 13.568198
Ni  0.941495  0.913604  0.866040
Ni  4.622029 13.547662 13.528320
Ni  6.437814 13.548319  0.904841
Ni  6.458083  0.886281 13.523609
%ENDBLOCK POSITIONS_ABS

