%block lattice_abc 
  14.46482773 14.46482773 14.46482773 #lattice params 
 90.0  90.0  90.0 
     %endblock lattice_abc 
     fix_all_cell : true 
     %BLOCK POSITIONS_ABS 
Al  8.218140  2.711626  2.734487
 Al 11.837479  2.711253  2.715110
 Al  8.252654  6.346242  2.722515
 Al 11.851149  6.341311  2.723539
 Al  8.295857  9.952470  2.639571
 Al 11.883311  9.942892  2.689067
 Al  8.233137 13.551334  2.726963
 Al 11.852445 13.567766  2.693233
 Al  8.216449  2.695552  6.310737
 Al 11.833535  2.734597  6.298143
 Al  8.160553  6.400069  6.297234
 Al 11.857220  6.331845  6.314687
 Al  8.406908  9.986392  6.334758
 Al 11.873310  9.929376  6.324347
 Al  8.294796 13.523218  6.248419
 Al 11.874824 13.571388  6.297898
 Al  8.246662  2.674305  9.913888
 Al 11.826647  2.736509  9.923427
 Al  8.236434  6.353043  9.951083
 Al 11.825065  6.319812  9.921843
 Al  8.294824  9.962116 10.000436
 Al 11.900265  9.926600  9.949111
 Al  8.346151 13.541713 10.027626
 Al 11.842091 13.566672  9.944390
 Al  8.249315  2.703042 13.573982
 Al 11.812358  2.730140 13.569218
 Al  8.208644  6.333491 13.576827
 Al 11.839758  6.326988 13.561487
 Al  8.226941  9.946454 13.568350
 Al 11.843336  9.927589 13.570810
 Al  8.234184 13.558585 13.551224
 Al 11.868963 13.560034 13.575938
 Al  4.770658  0.899387  0.894392
 Al  0.824530 13.586144 13.544121
 Al  2.798493  0.999475 13.439251
 Al  4.668574 11.791677  0.972174
 Al  2.780925 11.669150 13.465110
 Al  4.602435  8.243246  1.011010
 Al  0.986654  8.133000  0.871965
 Al  2.847877  0.937384 10.045911
 Al  0.863205  9.914541 10.068824
 Al  4.718871  8.213917 11.753096
 Al  2.777166  7.892639  9.945154
 Al  4.786201  4.414487 11.684300
 Al  4.699295  6.282806 13.671186
 Al  2.731722  4.521230  9.828384
 Al  0.801189  4.512853 11.757502
 Al  4.555678 13.549938  6.318695
 Al  6.368964 13.543250  8.235140
 Al  2.649524 13.484844  4.487636
 Al  0.908504  0.917806  8.061269
 Al  6.266579  9.941165  8.098504
 Al  0.889000 11.894012  8.078756
 Al  2.866676  9.942053  8.040468
 Al  4.881805  6.638879  6.299184
 Al  4.823266  4.452880  8.122904
 Al  2.701125  4.390355  6.302623
 Al  2.708829  0.964052  2.687554
 Al  6.298026  9.932644  4.539193
 Al  2.747917  9.960457  4.495292
 Al  2.801009  4.429344  2.623356
 Al  2.739323  4.409602 13.734270
 Al  2.720766  6.457352  4.453123
 Ni  8.210237  4.528097  4.503923
 Ni 10.029460  2.714047  4.516866
 Ni 10.041975  4.531073  2.730508
 Ni 11.850495  4.533903  4.516553
 Ni 13.655349  2.726261  4.494338
 Ni 13.635094  4.536140  2.713891
 Ni  8.224402  8.230087  4.527513
 Ni 10.026438  6.348876  4.526166
 Ni 10.067734  8.142799  2.708148
 Ni 11.868753  8.131856  4.528092
 Ni 13.680778  6.329510  4.516375
 Ni 13.666966  8.138896  2.711000
 Ni  8.240572 11.682645  4.520428
 Ni 10.093149  9.948836  4.491432
 Ni 10.044982 11.752135  2.697251
 Ni 11.866916 11.758826  4.482252
 Ni 13.652006  9.942215  4.508204
 Ni 13.669054 11.747628  2.681098
 Ni  8.219962  0.898564  4.533679
 Ni 10.063588 13.551217  4.493214
 Ni 10.021259  0.903041  2.710218
 Ni 11.844635  0.911685  4.487706
 Ni 13.673263 13.570511  4.475355
 Ni 13.660294  0.907373  2.697752
 Ni  6.523105  4.490487  9.931142
 Ni 10.022395  2.720606  8.104165
 Ni 10.007989  4.541849  6.300874
 Ni 11.820770  4.540228  8.092076
 Ni 13.642708  2.744615  8.101449
 Ni 13.664619  4.524853  6.296036
 Ni  8.216246  8.239955  8.107257
 Ni  9.996802  6.341902  8.107823
 Ni 10.037663  8.134162  6.322509
 Ni 11.857210  8.112690  8.125744
 Ni 13.670985  6.326627  8.115214
 Ni 13.681514  8.131039  6.333369
 Ni  8.242760 11.757858  8.143400
 Ni 10.095885  9.952008  8.157182
 Ni 10.102270 11.766660  6.320927
 Ni 11.890563 11.738080  8.133578
 Ni 13.700675  9.923321  8.134465
 Ni 13.642373 11.759157  6.282260
 Ni  8.243939  0.808167  8.121680
 Ni 10.085963 13.545201  8.124427
 Ni 10.049203  0.895459  6.313492
 Ni 11.842699  0.943336  8.113953
 Ni 13.599773 13.604234  8.140287
 Ni 13.615553  0.920741  6.268160
 Ni  8.227418  4.513933 11.766488
 Ni 10.032167  2.721274 11.745077
 Ni 10.009513  4.527049  9.921909
 Ni 11.841152  4.527871 11.743301
 Ni 13.614842  2.687764 11.743505
 Ni 13.611404  4.519093  9.885212
 Ni  8.205794  8.144346 11.758669
 Ni 10.020332  6.329566 11.752332
 Ni 10.042532  8.135622  9.939292
 Ni 11.831056  8.122918 11.745534
 Ni 13.632776  6.349611 11.744360
 Ni 13.661514  8.086475  9.938800
 Ni  8.248726 11.756395 11.757055
 Ni 10.056589  9.933272 11.769027
 Ni 10.080204 11.738276  9.948770
 Ni 11.854874 11.742948 11.763160
 Ni 13.635767  9.914347 11.801073
 Ni 13.661831 11.773500  9.961343
 Ni  8.260786  0.886915 11.741627
 Ni 10.081916 13.556563 11.781294
 Ni 10.059753  0.910974  9.925418
 Ni 11.825204  0.914705 11.751213
 Ni 13.624934 13.584536 11.723611
 Ni 13.623679  0.926697  9.944909
 Ni  8.238124  4.528671  0.942151
 Ni 10.024553  2.714387  0.922578
 Ni 10.028461  4.531673 13.569125
 Ni 11.822093  4.519349  0.928274
 Ni 13.638907  2.721812  0.912273
 Ni 13.606383  4.522511 13.601658
 Ni  8.230954  8.127493  0.918090
 Ni 10.043076  6.336282  0.913104
 Ni 10.028103  8.125707 13.562457
 Ni 11.861445  8.130391  0.897305
 Ni 13.643156  6.317265  0.903973
 Ni 13.649015  8.110579 13.540259
 Ni  8.229647 11.764463  0.895004
 Ni 10.056964  9.939011  0.885257
 Ni 10.046000 11.750107 13.564378
 Ni 11.843399 11.753376  0.901525
 Ni 13.671987  9.956834  0.868170
 Ni 13.639821 11.725073 13.551646
 Ni  8.214289  0.903206  0.916350
 Ni 10.033791 13.562908  0.900784
 Ni 10.037657  0.906087 13.570944
 Ni 11.835503  0.915405  0.915589
 Ni 13.636139 13.557444  0.917524
 Ni 13.596582  0.949074 13.562985
 Ni  1.007845  4.532096  4.478936
 Ni  2.799689  2.695556  4.499860
 Ni  0.948201  2.731243  2.692552
 Ni  4.536666  4.596011  4.572815
 Ni  6.371790  2.705904  4.541066
 Ni  4.584134  6.297125  2.709602
 Ni  4.638612  2.676936  2.734079
 Ni  0.967590  6.310872  2.692634
 Ni  0.943020  8.160656  4.508721
 Ni  4.591418  8.137046  4.422196
 Ni  6.423298  6.367085  4.436729
 Ni  6.435602  8.184118  2.730777
 Ni  2.746005  8.167844  2.669744
 Ni  0.933530 11.725921  4.506547
 Ni  4.558863  9.998547  2.711138
 Ni  2.756745 11.770795  2.662482
 Ni  4.576806 11.802206  4.507260
 Ni  4.554651  9.924659  6.275544
 Ni  6.429170 11.745097  2.748529
 Ni  0.968814  0.920954  4.485793
 Ni  4.574640 13.601471  2.725071
 Ni  0.988915 13.562745  2.648680
 Ni  4.578922  0.863312  4.514107
 Ni  6.408705 13.527585  4.507846
 Ni  6.420845  0.887557  2.770730
 Ni  2.787778 13.609817  0.821351
 Ni  0.954894  4.505506  8.089011
 Ni  2.810533  2.681038  8.129723
 Ni  0.945527  2.691294  6.278689
 Ni  6.452984  2.621918  8.108566
 Ni  6.400050  4.562100  6.269334
 Ni  4.603416  2.689010  6.306685
 Ni  1.051459  8.142196  8.152313
 Ni  2.887758  6.211132  8.008344
 Ni  2.794398  8.115355  6.308021
 Ni  1.007188  6.322137  6.311228
 Ni  4.583802  8.122429  8.200025
 Ni  8.208054  4.530531  8.082937
 Ni  6.446564  6.388538  8.175092
 Ni  0.926312 13.598731  6.285506
 Ni  0.968143  9.944456  6.339024
 Ni  4.566261 11.797046  8.138906
 Ni  6.406600 11.726388  6.328901
 Ni  2.747635 11.777300  6.325444
 Ni  2.749615 13.627015  8.174329
 Ni  2.783551  0.901499  6.278964
 Ni  4.613965  0.899811  8.112116
 Ni  6.402569  0.820617  6.329137
 Ni  0.952401  2.710391  9.916445
 Ni  6.467531  2.649313 11.754792
 Ni  4.653402  2.705933  9.925883
 Ni  1.013562  8.051793 11.763467
 Ni  0.960123  6.267502  9.921405
 Ni  2.861921  6.123907 11.844283
 Ni  6.379976  6.332456 11.760175
 Ni  6.437863  8.186092  9.914966
 Ni  4.649459  6.278105  9.936710
 Ni  0.956416 11.772688 11.760793
 Ni  2.779609  9.867761 11.693037
 Ni  2.697748 11.722923  9.890967
 Ni  4.593843 11.744111 11.715985
 Ni  6.419752  9.989842 11.766058
 Ni  6.404990 11.730856  9.950630
 Ni  4.532885  9.959530  9.962080
 Ni  0.945178  0.958049 11.757488
 Ni  2.754636 13.549340 11.806944
 Ni  0.975398 13.627240  9.991506
 Ni  4.645597  0.912887 11.754175
 Ni  6.399305 13.547644 11.732958
 Ni  6.418397  0.864948  9.947405
 Ni  4.556944 13.542139  9.982299
 Ni  0.928104  4.516437  0.924010
 Ni  2.819298  2.599019  0.895139
 Ni  2.781308  2.895850 11.732047
 Ni  0.933828  2.720456 13.566714
 Ni  4.646956  4.460568  0.918662
 Ni  6.439508  2.735051  0.917648
 Ni  6.448126  4.503576 13.590359
 Ni  4.662714  2.701083 13.554887
 Ni  0.966451  9.966787  2.681191
 Ni  2.814316  6.329965  0.885824
 Ni  2.883797  8.108144 13.513745
 Ni  0.986466  6.294166 13.563339
 Ni  6.390257  4.509564  2.736675
 Ni  6.386598  8.136999 13.605812
 Ni  6.409195  6.320283  0.964183
 Ni  0.991024 11.760181  0.847452
 Ni  2.774759  9.987193  0.875930
 Ni  0.991357  9.901797 13.508308
 Ni  6.427788  9.965334  0.904642
 Ni  6.410254 11.763688 13.532247
 Ni  4.629151 10.002297 13.568198
 Ni  0.941495  0.913604  0.866040
 Ni  4.622029 13.547662 13.528320
 Ni  6.437814 13.548319  0.904841
 Ni  6.458083  0.886281 13.523609
 %ENDBLOCK POSITIONS_ABS
 
%block positions_abs_product 
     ang 
Al  8.228747  2.691071  2.730266
 Al 11.848336  2.695803  2.716027
 Al  8.228219  6.336259  2.763291
 Al 11.858005  6.333294  2.727360
 Al  8.301274  9.934514  2.651373
 Al 11.879534  9.929843  2.701720
 Al  8.244090 13.554698  2.722966
 Al 11.857694 13.551577  2.701124
 Al  8.223191  2.678162  6.314504
 Al 11.853888  2.711508  6.307051
 Al  8.267428  6.259988  6.294310
 Al 11.861023  6.319826  6.317857
 Al  8.383343 10.025019  6.338081
 Al 11.870711  9.923025  6.328780
 Al  8.297204 13.528155  6.256140
 Al 11.878589 13.558666  6.311856
 Al  8.249664  2.666058  9.924679
 Al 11.833112  2.722999  9.935777
 Al  8.230562  6.338294  9.936697
 Al 11.828244  6.314479  9.926939
 Al  8.296670  9.940043  9.999340
 Al 11.891033  9.914935  9.946792
 Al  8.346468 13.541010 10.039530
 Al 11.837438 13.550274  9.948548
 Al  8.259641  2.700896 13.580140
 Al 11.813521  2.720544 13.571512
 Al  8.209514  6.318837 13.586012
 Al 11.835345  6.323937 13.570886
 Al  8.230188  9.931559 13.577364
 Al 11.838579  9.912218 13.577852
 Al  8.245756 13.550503 13.555308
 Al 11.874922 13.543417 13.576178
 Al  4.765687  0.893519  0.887232
 Al  0.824838 13.571554 13.541727
 Al  2.802085  0.995463 13.439769
 Al  4.667619 11.783998  0.961656
 Al  2.784250 11.651041 13.465983
 Al  4.605387  8.231583  1.024530
 Al  0.987495  8.121540  0.882190
 Al  2.857299  0.940682 10.057941
 Al  0.869705  9.904180 10.069144
 Al  4.726879  8.191854 11.751283
 Al  2.777982  7.878342  9.953070
 Al  4.791635  4.410127 11.688254
 Al  4.704848  6.274376 13.677937
 Al  2.740038  4.523101  9.824544
 Al  0.803846  4.508465 11.761386
 Al  4.550310 13.560715  6.328394
 Al  6.370754 13.554204  8.246184
 Al  2.645375 13.483274  4.493113
 Al  0.912600  0.906702  8.075105
 Al  6.249810 10.010348  8.164403
 Al  0.904871 11.880152  8.085173
 Al  2.891620  9.936284  8.044247
 Al  6.068316  7.871694  6.294902
 Al  4.801974  4.520833  8.056080
 Al  2.693061  4.383554  6.305359
 Al  2.698623  0.949023  2.680688
 Al  6.284246 10.029914  4.475163
 Al  2.765819  9.955862  4.510749
 Al  2.799823  4.426344  2.631055
 Al  2.741184  4.407401 13.740403
 Al  2.804408  6.441092  4.518928
 Ni  8.222724  4.487954  4.492643
 Ni 10.048084  2.693200  4.519934
 Ni 10.052096  4.517413  2.735453
 Ni 11.864084  4.516975  4.517734
 Ni 13.661244  2.712266  4.498869
 Ni 13.641638  4.530973  2.715885
 Ni  8.154858  8.209156  4.627777
 Ni 10.042820  6.330850  4.526610
 Ni 10.046535  8.124313  2.738635
 Ni 11.866904  8.123555  4.531453
 Ni 13.685846  6.322495  4.522272
 Ni 13.677029  8.131179  2.724555
 Ni  8.240564 11.694191  4.513923
 Ni 10.071055  9.931466  4.506521
 Ni 10.048106 11.743618  2.706370
 Ni 11.865236 11.742586  4.494792
 Ni 13.661431  9.928234  4.520213
 Ni 13.672121 11.731611  2.691745
 Ni  8.226650  0.892542  4.532946
 Ni 10.069319 13.546202  4.501763
 Ni 10.035791  0.891465  2.712331
 Ni 11.853706  0.894878  4.492657
 Ni 13.681214 13.555313  4.487114
 Ni 13.667316  0.893612  2.700185
 Ni  6.510865  4.479336  9.915250
 Ni 10.038578  2.701329  8.115003
 Ni 10.045617  4.496292  6.304156
 Ni 11.831532  4.526804  8.100152
 Ni 13.646093  2.728823  8.115210
 Ni 13.674851  4.517332  6.302582
 Ni  8.158689  8.226776  8.018546
 Ni 10.008658  6.328418  8.114857
 Ni 10.049498  8.129711  6.324713
 Ni 11.853300  8.105949  8.131147
 Ni 13.675668  6.321817  8.116847
 Ni 13.687878  8.125822  6.337246
 Ni  8.233579 11.759760  8.159742
 Ni 10.072976  9.936637  8.151855
 Ni 10.098331 11.764192  6.327838
 Ni 11.883085 11.722906  8.139707
 Ni 13.704867  9.916433  8.136506
 Ni 13.652395 11.743923  6.294246
 Ni  8.240316  0.811255  8.132094
 Ni 10.080199 13.536555  8.132531
 Ni 10.056592  0.886767  6.325052
 Ni 11.851942  0.923973  8.130390
 Ni 13.608864 13.584597  8.153423
 Ni 13.621184  0.900641  6.279139
 Ni  8.224724  4.507302 11.762628
 Ni 10.037362  2.712863 11.752569
 Ni 10.019244  4.516274  9.930778
 Ni 11.845118  4.522731 11.752619
 Ni 13.620354  2.679681 11.748974
 Ni 13.611730  4.511448  9.892456
 Ni  8.204533  8.126439 11.763723
 Ni 10.017214  6.320250 11.753342
 Ni 10.019543  8.121857  9.924303
 Ni 11.819958  8.114895 11.744517
 Ni 13.629346  6.346718 11.751495
 Ni 13.661917  8.084499  9.943036
 Ni  8.254400 11.743646 11.766501
 Ni 10.052074  9.918086 11.771771
 Ni 10.072550 11.724699  9.950471
 Ni 11.852174 11.725020 11.763648
 Ni 13.631838  9.899274 11.799963
 Ni 13.665122 11.758461  9.963583
 Ni  8.264713  0.884219 11.752247
 Ni 10.083956 13.543626 11.787775
 Ni 10.062180  0.898733  9.935002
 Ni 11.827718  0.900160 11.755613
 Ni 13.631282 13.571107 11.724416
 Ni 13.634131  0.910836  9.955020
 Ni  8.240132  4.521795  0.956762
 Ni 10.033701  2.704526  0.929485
 Ni 10.028283  4.526175 13.576196
 Ni 11.823650  4.512273  0.931177
 Ni 13.643549  2.714136  0.912199
 Ni 13.610727  4.520552 13.608223
 Ni  8.228105  8.110436  0.932437
 Ni 10.038502  6.326998  0.932951
 Ni 10.025203  8.113405 13.572724
 Ni 11.858162  8.120891  0.913171
 Ni 13.649909  6.311391  0.913118
 Ni 13.647037  8.103093 13.546189
 Ni  8.235788 11.754190  0.895495
 Ni 10.055587  9.923005  0.900675
 Ni 10.052026 11.734760 13.571810
 Ni 11.843677 11.738054  0.907481
 Ni 13.672496  9.945673  0.878113
 Ni 13.640770 11.710513 13.550617
 Ni  8.224917  0.895314  0.916024
 Ni 10.043264 13.551963  0.907155
 Ni 10.045550  0.895156 13.576548
 Ni 11.844561  0.901686  0.915296
 Ni 13.636237 13.541343  0.917460
 Ni 13.601400  0.935868 13.561817
 Ni  1.006554  4.525095  4.485750
 Ni  2.786333  2.677828  4.499868
 Ni  0.947029  2.723550  2.689130
 Ni  4.541543  4.530189  4.546673
 Ni  6.370196  2.677325  4.526517
 Ni  4.590324  6.279327  2.731277
 Ni  4.627447  2.650615  2.720688
 Ni  0.985466  6.302016  2.716974
 Ni  0.967100  8.140929  4.517869
 Ni  4.599149  8.145714  4.420021
 Ni  6.377191  6.291269  4.480435
 Ni  6.433978  8.167298  2.745236
 Ni  2.749529  8.150453  2.687790
 Ni  0.944059 11.715612  4.518392
 Ni  4.541154 10.005784  2.699775
 Ni  2.752004 11.769082  2.660670
 Ni  4.565151 11.827809  4.502961
 Ni  4.604831  9.947282  6.285298
 Ni  6.431101 11.767055  2.722411
 Ni  0.969993  0.906349  4.491437
 Ni  4.568928 13.604381  2.710359
 Ni  0.987249 13.548513  2.648248
 Ni  4.572880  0.854318  4.513432
 Ni  6.410986 13.533793  4.499937
 Ni  6.422118  0.875170  2.760997
 Ni  2.782283 13.592737  0.810826
 Ni  0.950586  4.494388  8.097728
 Ni  2.806785  2.677101  8.132522
 Ni  0.941846  2.676905  6.288060
 Ni  6.438814  2.631389  8.113693
 Ni  6.425564  4.499828  6.256193
 Ni  4.601353  2.695415  6.309881
 Ni  1.058153  8.141905  8.159650
 Ni  2.857882  6.218492  8.026554
 Ni  2.831695  8.121666  6.327810
 Ni  1.030698  6.327432  6.312453
 Ni  4.580827  8.081907  8.184804
 Ni  8.229893  4.491859  8.099009
 Ni  6.468469  6.335092  8.148585
 Ni  0.933555 13.591717  6.298252
 Ni  0.981825  9.931325  6.347809
 Ni  4.560153 11.817172  8.156718
 Ni  6.401366 11.775245  6.337743
 Ni  2.759060 11.775163  6.336466
 Ni  2.757493 13.630793  8.189135
 Ni  2.783983  0.901478  6.286282
 Ni  4.615605  0.903121  8.122180
 Ni  6.401187  0.823080  6.331117
 Ni  0.956397  2.702950  9.925633
 Ni  6.471393  2.649379 11.759948
 Ni  4.651208  2.722645  9.908966
 Ni  1.015683  8.041093 11.767566
 Ni  0.950433  6.260383  9.931231
 Ni  2.873591  6.114446 11.849051
 Ni  6.383920  6.317996 11.758684
 Ni  6.447028  8.162042  9.907468
 Ni  4.657535  6.266947  9.912997
 Ni  0.959856 11.755912 11.763020
 Ni  2.784196  9.851548 11.702333
 Ni  2.702971 11.714791  9.898645
 Ni  4.598749 11.728298 11.721521
 Ni  6.427361  9.969889 11.764582
 Ni  6.409508 11.740873  9.976833
 Ni  4.528011  9.940400  9.973383
 Ni  0.955769  0.948377 11.761632
 Ni  2.762912 13.538485 11.809418
 Ni  0.981767 13.613633 10.000918
 Ni  4.652495  0.918190 11.759729
 Ni  6.408146 13.549817 11.748059
 Ni  6.418634  0.872607  9.956456
 Ni  4.566074 13.543372  9.999152
 Ni  0.933558  4.515243  0.928073
 Ni  2.813109  2.590894  0.891967
 Ni  2.785981  2.902221 11.735749
 Ni  0.935128  2.713498 13.567768
 Ni  4.643849  4.451463  0.923422
 Ni  6.443475  2.724430  0.914883
 Ni  6.453040  4.496514 13.599235
 Ni  4.665393  2.699272 13.559752
 Ni  0.974169  9.956463  2.691468
 Ni  2.821120  6.327270  0.895154
 Ni  2.888199  8.099747 13.520536
 Ni  0.992449  6.291113 13.567327
 Ni  6.384829  4.481931  2.738180
 Ni  6.391589  8.121625 13.613703
 Ni  6.408484  6.306680  0.978326
 Ni  0.989461 11.746590  0.847587
 Ni  2.770990  9.972835  0.876428
 Ni  0.986703  9.886546 13.510101
 Ni  6.430634  9.951171  0.917173
 Ni  6.418371 11.747485 13.532878
 Ni  4.637571  9.982661 13.568339
 Ni  0.940993  0.899013  0.859992
 Ni  4.632152 13.541785 13.527246
 Ni  6.446628 13.547708  0.893471
 Ni  6.467097  0.887499 13.526281
%endblock positions_abs_product 
%block positions_abs_intermediate 
     ang 
Al  8.223443  2.701349  2.732376
 Al 11.842907  2.703528  2.715568
 Al  8.240436  6.341251  2.742903
 Al 11.854577  6.337302  2.725450
 Al  8.298566  9.943492  2.645472
 Al 11.881422  9.936368  2.695393
 Al  8.238614 13.553016  2.724964
 Al 11.855070 13.559672  2.697179
 Al  8.219820  2.686857  6.312621
 Al 11.843711  2.723053  6.302597
 Al  8.213990  6.330029  6.295772
 Al 11.859121  6.325836  6.316272
 Al  8.395125 10.005706  6.336419
 Al 11.872010  9.926201  6.326563
 Al  8.296000 13.525686  6.252279
 Al 11.876707 13.565027  6.304877
 Al  8.248163  2.670182  9.919284
 Al 11.829880  2.729754  9.929602
 Al  8.233498  6.345669  9.943890
 Al 11.826654  6.317146  9.924391
 Al  8.295747  9.951079  9.999888
 Al 11.895649  9.920767  9.947951
 Al  8.346310 13.541361 10.033578
 Al 11.839764 13.558473  9.946469
 Al  8.254478  2.701969 13.577061
 Al 11.812940  2.725342 13.570365
 Al  8.209079  6.326164 13.581420
 Al 11.837551  6.325463 13.566187
 Al  8.228565  9.939007 13.572857
 Al 11.840957  9.919904 13.574331
 Al  8.239970 13.554544 13.553266
 Al 11.871942 13.551726 13.576058
 Al  4.768173  0.896453  0.890812
 Al  0.824684 13.578849 13.542924
 Al  2.800289  0.997469 13.439510
 Al  4.668097 11.787838  0.966915
 Al  2.782588 11.660096 13.465547
 Al  4.603911  8.237414  1.017770
 Al  0.987075  8.127270  0.877078
 Al  2.852588  0.939033 10.051926
 Al  0.866455  9.909360 10.068984
 Al  4.722875  8.202886 11.752189
 Al  2.777574  7.885490  9.949112
 Al  4.788918  4.412307 11.686277
 Al  4.702072  6.278591 13.674562
 Al  2.735880  4.522166  9.826464
 Al  0.802517  4.510659 11.759444
 Al  4.552994 13.555327  6.323545
 Al  6.369859 13.548727  8.240662
 Al  2.647450 13.484059  4.490374
 Al  0.910552  0.912254  8.068187
 Al  6.258194  9.975756  8.131454
 Al  0.896936 11.887082  8.081965
 Al  2.879148  9.939168  8.042357
 Al  5.475060  7.255286  6.297043
 Al  4.812620  4.486857  8.089492
 Al  2.697093  4.386955  6.303991
 Al  2.703726  0.956537  2.684121
 Al  6.291136  9.981279  4.507178
 Al  2.756868  9.958159  4.503020
 Al  2.800416  4.427844  2.627206
 Al  2.740254  4.408502 13.737336
 Al  2.762587  6.449222  4.486026
 Ni  8.216481  4.508025  4.498283
 Ni 10.038772  2.703624  4.518400
 Ni 10.047035  4.524243  2.732981
 Ni 11.857290  4.525439  4.517143
 Ni 13.658296  2.719263  4.496603
 Ni 13.638366  4.533557  2.714888
 Ni  8.189630  8.219622  4.577645
 Ni 10.034629  6.339863  4.526388
 Ni 10.057134  8.133556  2.723391
 Ni 11.867828  8.127705  4.529773
 Ni 13.683312  6.326002  4.519323
 Ni 13.671998  8.135038  2.717777
 Ni  8.240568 11.688418  4.517176
 Ni 10.082102  9.940151  4.498977
 Ni 10.046544 11.747876  2.701810
 Ni 11.866076 11.750706  4.488522
 Ni 13.656718  9.935225  4.514208
 Ni 13.670587 11.739619  2.686422
 Ni  8.223306  0.895553  4.533312
 Ni 10.066454 13.548710  4.497488
 Ni 10.028525  0.897253  2.711275
 Ni 11.849171  0.903282  4.490181
 Ni 13.677238 13.562912  4.481235
 Ni 13.663805  0.900493  2.698969
 Ni  6.516985  4.484911  9.923196
 Ni 10.030486  2.710968  8.109584
 Ni 10.026803  4.519071  6.302515
 Ni 11.826151  4.533516  8.096114
 Ni 13.644401  2.736719  8.108330
 Ni 13.669735  4.521092  6.299309
 Ni  8.187467  8.233365  8.062901
 Ni 10.002730  6.335160  8.111340
 Ni 10.043580  8.131937  6.323611
 Ni 11.855255  8.109319  8.128446
 Ni 13.673327  6.324222  8.116030
 Ni 13.684696  8.128431  6.335308
 Ni  8.238169 11.758809  8.151571
 Ni 10.084431  9.944323  8.154519
 Ni 10.100301 11.765426  6.324383
 Ni 11.886824 11.730493  8.136642
 Ni 13.702771  9.919877  8.135486
 Ni 13.647384 11.751540  6.288253
 Ni  8.242128  0.809711  8.126887
 Ni 10.083081 13.540878  8.128479
 Ni 10.052897  0.891113  6.319272
 Ni 11.847320  0.933655  8.122171
 Ni 13.604318 13.594416  8.146855
 Ni 13.618369  0.910691  6.273650
 Ni  8.226071  4.510617 11.764558
 Ni 10.034764  2.717068 11.748823
 Ni 10.014379  4.521661  9.926344
 Ni 11.843135  4.525301 11.747960
 Ni 13.617598  2.683723 11.746240
 Ni 13.611567  4.515271  9.888834
 Ni  8.205164  8.135392 11.761196
 Ni 10.018773  6.324908 11.752837
 Ni 10.031038  8.128739  9.931797
 Ni 11.825507  8.118907 11.745026
 Ni 13.631061  6.348164 11.747928
 Ni 13.661715  8.085487  9.940918
 Ni  8.251563 11.750021 11.761778
 Ni 10.054331  9.925679 11.770399
 Ni 10.076377 11.731488  9.949620
 Ni 11.853524 11.733984 11.763404
 Ni 13.633803  9.906810 11.800518
 Ni 13.663477 11.765981  9.962463
 Ni  8.262750  0.885567 11.746937
 Ni 10.082936 13.550095 11.784534
 Ni 10.060967  0.904854  9.930210
 Ni 11.826461  0.907433 11.753413
 Ni 13.628108 13.577821 11.724014
 Ni 13.628905  0.918767  9.949964
 Ni  8.239128  4.525233  0.949456
 Ni 10.029127  2.709457  0.926032
 Ni 10.028372  4.528924 13.572660
 Ni 11.822872  4.515811  0.929725
 Ni 13.641228  2.717974  0.912236
 Ni 13.608555  4.521532 13.604941
 Ni  8.229529  8.118964  0.925264
 Ni 10.040789  6.331640  0.923028
 Ni 10.026653  8.119556 13.567590
 Ni 11.859804  8.125641  0.905238
 Ni 13.646532  6.314328  0.908546
 Ni 13.648026  8.106836 13.543224
 Ni  8.232717 11.759327  0.895250
 Ni 10.056276  9.931008  0.892966
 Ni 10.049013 11.742433 13.568094
 Ni 11.843538 11.745715  0.904503
 Ni 13.672242  9.951254  0.873142
 Ni 13.640296 11.717793 13.551132
 Ni  8.219603  0.899260  0.916187
 Ni 10.038527 13.557435  0.903970
 Ni 10.041604  0.900621 13.573746
 Ni 11.840032  0.908545  0.915443
 Ni 13.636188 13.549394  0.917492
 Ni 13.598991  0.942471 13.562401
 Ni  1.007200  4.528596  4.482343
 Ni  2.793011  2.686692  4.499864
 Ni  0.947615  2.727396  2.690841
 Ni  4.539104  4.563100  4.559744
 Ni  6.370993  2.691614  4.533791
 Ni  4.587229  6.288226  2.720439
 Ni  4.633030  2.663776  2.727383
 Ni  0.976528  6.306444  2.704804
 Ni  0.955060  8.150792  4.513295
 Ni  4.595284  8.141380  4.421108
 Ni  6.400244  6.329177  4.458582
 Ni  6.434790  8.175708  2.738006
 Ni  2.747767  8.159148  2.678767
 Ni  0.938795 11.720766  4.512469
 Ni  4.550008 10.002166  2.705456
 Ni  2.754374 11.769939  2.661576
 Ni  4.570979 11.815008  4.505111
 Ni  4.579741  9.935970  6.280421
 Ni  6.430135 11.756076  2.735470
 Ni  0.969403  0.913652  4.488615
 Ni  4.571784 13.602926  2.717715
 Ni  0.988082 13.555629  2.648464
 Ni  4.575901  0.858815  4.513770
 Ni  6.409846 13.530689  4.503892
 Ni  6.421482  0.881364  2.765863
 Ni  2.785030 13.601277  0.816089
 Ni  0.952740  4.499947  8.093370
 Ni  2.808659  2.679069  8.131122
 Ni  0.943687  2.684100  6.283375
 Ni  6.445899  2.626654  8.111130
 Ni  6.412807  4.530964  6.262763
 Ni  4.602385  2.692212  6.308283
 Ni  1.054806  8.142051  8.155981
 Ni  2.872820  6.214812  8.017449
 Ni  2.813046  8.118510  6.317915
 Ni  1.018943  6.324784  6.311841
 Ni  4.582314  8.102168  8.192415
 Ni  8.218973  4.511195  8.090973
 Ni  6.457517  6.361815  8.161839
 Ni  0.929934 13.595224  6.291879
 Ni  0.974984  9.937891  6.343417
 Ni  4.563207 11.807109  8.147812
 Ni  6.403983 11.750816  6.333322
 Ni  2.753348 11.776231  6.330955
 Ni  2.753554 13.628904  8.181732
 Ni  2.783767  0.901489  6.282623
 Ni  4.614785  0.901466  8.117148
 Ni  6.401878  0.821848  6.330127
 Ni  0.954399  2.706670  9.921039
 Ni  6.469462  2.649346 11.757370
 Ni  4.652305  2.714289  9.917425
 Ni  1.014622  8.046443 11.765517
 Ni  0.955278  6.263943  9.926318
 Ni  2.867756  6.119176 11.846667
 Ni  6.381948  6.325226 11.759430
 Ni  6.442445  8.174067  9.911217
 Ni  4.653497  6.272526  9.924853
 Ni  0.958136 11.764300 11.761906
 Ni  2.781902  9.859654 11.697685
 Ni  2.700359 11.718857  9.894806
 Ni  4.596296 11.736205 11.718753
 Ni  6.423556  9.979866 11.765320
 Ni  6.407249 11.735864  9.963732
 Ni  4.530448  9.949965  9.967732
 Ni  0.950474  0.953213 11.759560
 Ni  2.758774 13.543913 11.808181
 Ni  0.978583 13.620436  9.996212
 Ni  4.649046  0.915539 11.756952
 Ni  6.403725 13.548730 11.740509
 Ni  6.418515  0.868777  9.951930
 Ni  4.561509 13.542756  9.990726
 Ni  0.930831  4.515840  0.926042
 Ni  2.816203  2.594956  0.893553
 Ni  2.783645  2.899036 11.733898
 Ni  0.934478  2.716977 13.567241
 Ni  4.645402  4.456015  0.921042
 Ni  6.441491  2.729740  0.916266
 Ni  6.450583  4.500045 13.594797
 Ni  4.664054  2.700178 13.557320
 Ni  0.970310  9.961625  2.686330
 Ni  2.817718  6.328618  0.890489
 Ni  2.885998  8.103945 13.517141
 Ni  0.989457  6.292640 13.565333
 Ni  6.387543  4.495748  2.737427
 Ni  6.389093  8.129312 13.609758
 Ni  6.408839  6.313482  0.971254
 Ni  0.990242 11.753385  0.847519
 Ni  2.772875  9.980014  0.876179
 Ni  0.989030  9.894171 13.509205
 Ni  6.429211  9.958253  0.910907
 Ni  6.414313 11.755586 13.532563
 Ni  4.633361  9.992479 13.568268
 Ni  0.941244  0.906309  0.863016
 Ni  4.627090 13.544723 13.527783
 Ni  6.442221 13.548014  0.899156
 Ni  6.462590  0.886890 13.524945
%endblock positions_abs_intermediate 
     kpoint_mp_grid 1 1 1 
     fix_com : false