#######################################################
#CASTEP cell file: /home/u2093113/Documents/kART/barriers/CASTEP/castep.cell
#Created using the Atomic Simulation Environment (ASE)#
#######################################################

%BLOCK LATTICE_CART
14.464828  0.000000  0.000000
 0.000000 14.464828  0.000000
 0.000000  0.000000 14.464828
%ENDBLOCK LATTICE_CART

%BLOCK POSITIONS_ABS
Ni  8.191803  6.245427  2.758704
Ni 10.039179  4.458795  2.726231
Ni 10.017728  6.274887  0.931488
Al  8.242153  4.464165  0.941072
Ni 11.833353  6.276511  2.718681
Ni 13.637901  4.475946  2.711128
Ni 13.632023  6.282733  0.905986
Al 11.831520  4.478779  0.906418
Ni  8.161941  9.947643  2.773465
Ni 10.021215  8.086784  2.727508
Ni 10.022047  9.875743  0.925475
Al  8.228764  8.081684  0.961445
Ni 11.842326  9.885360  2.713288
Ni 13.633631  8.082729  2.714541
Ni 13.635990  9.880602  0.903967
Al 11.822831  8.076966  0.913772
Ni  8.234090 13.492479  2.679036
Ni 10.062675 11.703438  2.698251
Ni 10.065722 13.515889  0.886063
Al  8.315228 11.705773  0.863125
Ni 11.863026 13.507577  2.696097
Ni 13.640273 11.691746  2.705880
Ni 13.645604 13.501413  0.896467
Al 11.842991 11.686373  0.896198
Ni  8.227330  2.649456  2.715414
Ni 10.068919  0.847954  2.688970
Ni 10.040126  2.668561  0.902472
Al  8.271353  0.856043  0.908133
Ni 11.851360  2.663382  2.704405
Ni 13.646592  0.853231  2.702895
Ni 13.642930  2.672548  0.900204
Al 11.854695  0.860910  0.890281
Ni  8.226846  6.252054  6.331570
Ni 10.052264  4.435277  6.314316
Ni 10.044419  6.251544  4.531206
Al  8.242390  4.427998  4.529853
Ni 11.836945  6.276354  6.330114
Ni 13.636674  4.473163  6.336469
Ni 13.632421  6.280857  4.524840
Al 11.849363  4.460704  4.521128
Ni  8.166948  9.972419  6.264145
Ni 10.036966  8.103348  6.316400
Ni 10.041903  9.903250  4.519816
Al  8.293895  8.028562  4.521674
Ni 11.847066  9.897977  6.328935
Ni 13.631659  8.086755  6.334604
Ni 13.639768  9.889620  4.522173
Al 11.833870  8.084645  4.522199
Ni  8.226750 13.529982  6.368246
Ni 10.061585 11.720123  6.341284
Ni 10.093350 13.527489  4.516220
Al  8.355590 11.788604  4.523209
Ni 11.870665 13.506600  6.340915
Ni 13.645406 11.694946  6.337400
Ni 13.646087 13.503396  4.518888
Al 11.856114 11.701441  4.518705
Ni  8.242034  2.565668  6.328961
Ni 10.070520  0.830883  6.339435
Ni 10.061537  2.639606  4.516670
Al  8.313148  0.825355  4.465917
Ni 11.861857  2.649021  6.329659
Ni 13.653767  0.848580  6.338360
Ni 13.646290  2.661637  4.519656
Al 11.867722  0.851448  4.515464
Ni  8.185236  6.281433  9.842409
Ni 10.042670  4.479985  9.946856
Ni 10.035504  6.276946  8.118148
Al  8.329302  4.380885  8.106434
Ni 11.828355  6.286291  9.948005
Ni 13.637774  4.483860  9.955187
Ni 13.632709  6.284727  8.144039
Al 11.841660  4.472667  8.141217
Ni  8.203854  9.891350  9.961567
Ni 10.017132  8.083790  9.940372
Ni 10.044248  9.907426  8.129766
Al  8.291657  8.160403  8.096560
Ni 11.836367  9.877638  9.957652
Ni 13.633434  8.083405  9.952311
Ni 13.636013  9.886757  8.147841
Al 11.828296  8.088234  8.136913
Ni  8.253603 13.496509  9.988753
Ni 10.058828 11.686324  9.981918
Ni 10.087484 13.502184  8.168899
Al  8.319862 11.710381  8.188143
Ni 11.865356 13.496622  9.974945
Ni 13.644996 11.685808  9.961757
Ni 13.650864 13.500275  8.155658
Al 11.854012 11.693356  8.155595
Ni  8.259332  2.655566  9.963471
Ni 10.091762  0.848158  9.990718
Ni 10.093686  2.639541  8.148495
Al  8.355720  0.837098  8.233135
Ni 11.856840  2.673711  9.969500
Ni 13.649306  0.852832  9.964588
Ni 13.639388  2.665344  8.150651
Al 11.868703  0.844887  8.158456
Ni  8.206250  6.281035 13.600620
Ni 10.016591  4.480709 13.573491
Ni  9.993245  6.288327 11.743787
Al  8.259625  4.483391 11.745404
Ni 11.816760  6.282909 13.566811
Ni 13.637483  4.485085 13.563584
Ni 13.633587  6.285684 11.759368
Al 11.826212  4.491473 11.763670
Ni  8.209978  9.885554 13.577188
Ni 10.006817  8.075390 13.579755
Ni 10.023327  9.868985 11.764438
Al  8.221244  8.075674 11.756592
Ni 11.829290  9.869358 13.569729
Ni 13.632642  8.079183 13.566583
Ni 13.637421  9.876218 11.763022
Al 11.819103  8.073840 11.760673
Ni  8.232159 13.516541 13.550842
Ni 10.053558 11.686275 13.553873
Ni 10.061736 13.500437 11.774191
Al  8.249493 11.688746 11.772237
Ni 11.855656 13.505398 13.561197
Ni 13.640083 11.684623 13.565025
Ni 13.652219 13.499676 11.766278
Al 11.849227 11.679091 11.769082
Ni  8.217342  2.658647 13.564937
Ni 10.046961  0.861838 13.559467
Ni 10.046712  2.676858 11.770570
Al  8.275329  0.852440 11.752658
Ni 11.843665  2.678949 13.565032
Ni 13.650913  0.857081 13.562651
Ni 13.646827  2.677144 11.764074
Al 11.860203  0.859314 11.775601
Ni  1.053467  6.236667  2.701956
Ni  2.776310  4.432668  2.701084
Al  4.756935  2.650503 13.518815
Ni  0.939016  4.431319  0.870387
Ni  4.515390  6.254544  2.719262
Ni  6.397218  4.440301  2.757654
Ni  4.585901  8.065503  0.914617
Ni  4.630763  4.415564  0.907177
Al  0.811061  0.843630 11.693144
Ni  0.955118  8.107356  0.838111
Ni  0.942665  9.950257  2.702722
Al  2.784799  2.757753 11.644659
Ni  4.557875  9.910153  2.666928
Ni  6.390819  8.063774  2.743967
Ni  6.428521  9.922112  0.960589
Ni  2.752037  9.929636  0.892226
Ni  0.948716 13.518101  2.677339
Ni  4.582534 11.758075  0.901622
Ni  2.750709 13.549609  0.830294
Al  4.656067 13.534502 13.584707
Ni  4.542961 13.583127  2.671805
Ni  4.606161 11.746422  4.483497
Ni  6.436208 13.540123  0.892452
Al  2.788307 13.451929 11.648923
Ni  0.945355  2.619210  2.666808
Ni  4.570863  0.900288  0.861418
Ni  0.965022  0.852202  0.808221
Ni  4.553703  2.601811  2.691760
Ni  6.415526  0.827948  2.709026
Ni  6.437395  2.648832  0.927015
Ni  2.794176  0.894998 13.431488
Ni  0.949173  6.232376  6.328623
Ni  2.773383  4.359005  6.333522
Al  4.607793  9.974663 13.656606
Ni  0.925112  4.399663  4.515555
Al  1.081698  9.940726 13.447302
Ni  6.459404  4.377890  6.303346
Ni  6.340186  6.254357  4.595975
Ni  4.615209  4.407194  4.538992
Ni  1.016251  9.920505  6.365816
Ni  2.770774  8.064524  6.264484
Ni  2.768559  9.914569  4.496021
Ni  0.959229  8.079980  4.508017
Ni  4.571288  9.873801  6.337434
Ni  6.426185  8.112063  6.278080
Al  2.854802  2.699928  8.274189
Ni  4.538008  8.023890  4.504472
Ni  0.952080  0.863079  4.524018
Al  0.958845 11.673992  8.187147
Ni  1.003502 11.790315  4.573934
Ni  4.557693 13.574591  6.364850
Ni  6.429460 13.548553  4.539272
Ni  2.765157 13.567962  4.526851
Al  4.710493  9.917065  9.957758
Al  2.791735  9.693669  8.150207
Ni  2.805700  0.919898  6.379231
Ni  2.752034  2.628696  4.488780
Ni  4.600104  2.612128  6.352510
Ni  6.423631  2.574949  4.530904
Al  4.701821  6.185568  9.950430
Al  4.738454  8.042267 11.851072
Al  2.868954  6.250726  7.914100
Al  0.953948  6.293991  9.902246
Ni  0.938269  4.468244  8.144934
Ni  6.491805  4.469524  9.879237
Ni  4.647752  4.470643  8.082515
Al  4.598457  0.865830  4.508114
Al  6.379787  0.821353  6.436752
Al  2.689484  0.786328  2.672094
Ni  0.960914  9.823954  9.957570
Al  0.957956  2.639614  6.379071
Ni  0.938646  8.047612  8.144437
Ni  2.861238  7.942939  9.986209
Ni  6.435418  8.059310  9.901566
Ni  6.433059  9.916769  8.101145
Ni  4.640479  8.036246  8.122127
Al  6.277370 11.799746  6.362588
Ni  0.935644 13.484037  9.940483
Ni  2.791891 11.620729  9.904478
Ni  2.766178 13.504315  8.177693
Al  1.011130 13.678500  6.391380
Ni  4.603938 13.483093  9.962957
Ni  6.450217 11.712580  9.930397
Ni  6.432496 13.508468  8.177957
Ni  4.569932 11.673387  8.153504
Al  2.903084 11.715503  6.246492
Ni  0.938508  2.693699  9.929915
Ni  2.764680  0.860024 10.002269
Al  6.258215  9.816776  4.499104
Ni  0.975593  0.893146  8.194340
Ni  4.636123  2.704721  9.969577
Ni  6.455869  0.840552  9.940445
Ni  6.446105  2.630203  8.155957
Ni  4.601380  0.860787  8.215975
Ni  0.958331  6.243322 13.537702
Ni  2.814998  4.385512 13.538031
Ni  2.790975  4.585191  9.912400
Ni  0.919725  4.475591 11.691599
Ni  4.632028  6.246591 13.578883
Ni  6.473076  4.465782 13.584348
Ni  6.469084  6.259371 11.755709
Ni  4.674526  4.472715 11.757825
Al  6.328150  6.256656  7.892021
Ni  0.971521 11.729807  0.839247
Ni  2.808985  8.080405 13.569982
Ni  2.883740  9.842635 11.720340
Ni  0.958732  8.056317 11.739920
Al  2.797860  6.155772  4.621676
Ni  6.395111  6.252358  0.959912
Ni  6.416404  9.888977 11.785282
Ni  6.433568  8.095305 13.641283
Al  2.709737  2.704366  0.842994
Ni  0.986050 13.492926 13.457243
Ni  2.819738 11.736966 13.518424
Al  6.285433 11.817619  2.678876
Ni  0.962277 11.677241 11.691517
Al  2.773914 11.749960  2.708477
Ni  6.437015 11.716110 13.598536
Ni  6.432916 13.512512 11.754672
Ni  4.648436 11.706245 11.761730
Al  2.778485  6.169066  0.820858
Al  2.766362  6.182702 11.891860
Ni  0.959868  2.659870 13.466355
Al  2.733587  8.175686  2.693730
Ni  4.636075  0.853554 11.731039
Ni  6.457146  0.847241 13.557294
Ni  6.463324  2.666312 11.722408
%ENDBLOCK POSITIONS_ABS

FIX_ALL_CELL: TRUE
KPOINT_MP_GRID: 1 1 1
