#######################################################
#CASTEP cell file: /home/u2093113/Documents/kART/barriers/CASTEP/castep.cell
#Created using the Atomic Simulation Environment (ASE)#
#######################################################

%BLOCK LATTICE_CART
14.464828  0.000000  0.000000
 0.000000 14.464828  0.000000
 0.000000  0.000000 14.464828
%ENDBLOCK LATTICE_CART

%BLOCK POSITIONS_ABS
Ni 10.014075  0.908987  2.720405
Ni 11.839084 13.570511  2.723459
Ni 11.831229  0.925144  0.928653
Al 10.051382 13.566782  0.935406
Ni 13.625286  0.927299  2.727579
Al 13.631462 13.581372  0.916292
Ni 10.002197  4.612257  2.716519
Ni 11.815590  2.744270  2.727123
Ni 11.841328  4.539747  0.919105
Al 10.041714  2.745039  0.944382
Ni 13.640679  4.531940  2.724055
Al 13.627666  2.729032  0.919640
Ni 10.011317  8.109156  2.714981
Ni 11.866998  6.351380  2.714744
Ni 11.858286  8.153434  0.907706
Al 10.091903  6.364610  0.890938
Ni 13.659233  8.150160  2.716329
Al 13.649171  6.338685  0.907105
Ni 10.027362 11.755105  2.711576
Ni 11.857293  9.945088  2.708192
Ni 11.840776 11.760525  0.913864
Al 10.061829  9.940785  0.931394
Ni 13.641566 11.767236  2.718556
Al 13.650461  9.960194  0.906466
Ni  8.302780  0.891170  8.124299
Ni 11.814754 13.563147  6.322956
Ni 11.814745  0.921836  4.523501
Al 10.041344 13.544741  4.506461
Ni 13.609951  0.925692  6.336909
Al 13.625785 13.579387  4.531950
Ni  9.988772  4.597240  6.331940
Ni 11.795777  2.740433  6.324627
Ni 11.837077  4.540443  4.530471
Al 10.027293  2.752596  4.500096
Ni 13.629768  4.529430  6.343966
Al 13.621163  2.729173  4.533427
Ni  9.998854  8.150236  6.356695
Ni 11.850766  6.354305  6.351827
Ni 11.871169  8.157188  4.531583
Al 10.133823  6.375194  4.537134
Ni 13.656224  8.149042  6.347943
Al 13.648285  6.339841  4.535456
Ni 10.030252 11.701162  6.339515
Ni 11.844423  9.940299  6.343855
Ni 11.847326 11.754404  4.524592
Al 10.098449  9.936875  4.475508
Ni 13.635775 11.767126  6.339347
Al 13.650412  9.958373  4.531141
Ni 10.016597  0.925137  9.959577
Ni 11.826447 13.584459  9.965264
Ni 11.800471  0.925370  8.135965
Al 10.081043 13.546693  8.136008
Ni 13.611386  0.928874  9.957116
Al 13.612976 13.589024  8.146517
Ni  9.998586  4.539460  9.968694
Ni 11.802863  2.730591  9.961489
Ni 11.824425  4.533385  8.149558
Al 10.036499  2.745717  8.129482
Ni 13.627302  4.521911  9.961345
Al 13.607021  2.724456  8.145883
Ni 10.037634  8.133540  9.979614
Ni 11.843731  6.330704  9.974038
Ni 11.867787  8.139691  8.163802
Al 10.086007  6.352162  8.174849
Ni 13.652778  8.139613  9.970065
Al 13.642295  6.331225  8.159000
Ni 10.056478 11.754502  9.975475
Ni 11.876408  9.951646  9.986568
Ni 11.860459 11.764329  8.153383
Al 10.139990  9.938608  8.226335
Ni 13.639129 11.780437  9.968246
Al 13.645807  9.957807  8.157190
Ni 10.013547  0.926692 13.616293
Ni 11.825114 13.576829 13.589694
Ni 11.809029  0.930953 11.779053
Al 10.067772 13.573180 11.789434
Ni 13.622964  0.926013 13.576695
Al 13.619766 13.590107 11.771885
Ni 10.010991  4.554802 13.592322
Ni 11.818469  2.733259 13.588155
Ni 11.822005  4.528792 11.773042
Al 10.027226  2.739090 11.797598
Ni 13.635011  4.526810 13.571156
Al 13.617623  2.724543 11.767743
Ni 10.022284  8.153444 13.568942
Ni 11.849245  6.342101 13.567049
Ni 11.851955  8.141082 11.774914
Al 10.044236  6.340373 11.775793
Ni 13.651484  8.148609 13.568484
Al 13.642988  6.329644 11.767985
Ni 10.017300 11.743423 13.585203
Ni 11.842195  9.955447 13.573820
Ni 11.842333 11.768979 11.782694
Al 10.069125  9.944167 11.761532
Ni 13.640638 11.774017 13.574756
Al 13.650160  9.961235 11.775690
Ni  0.898770 13.494973  2.670708
Ni  0.951076  0.854088  0.861667
Ni  2.797636  0.865258  2.642118
Ni  4.560688 13.535904  2.659294
Al  6.553068 11.741218 13.526361
Ni  2.718221 13.522096  0.841359
Ni  6.302192  0.941145  2.712543
Ni  8.202207 13.544954  2.719790
Ni  6.380418  2.731120  0.920263
Ni  6.423586 13.529903  0.902880
Al  2.615314  9.930735 11.683223
Ni  2.717699  2.766496  0.804053
Ni  2.723108  4.600130  2.700822
Al  4.587508 11.847450 11.652759
Ni  6.347507  4.548908  2.687603
Ni  8.221540  2.752778  2.691140
Ni  8.222193  4.601386  0.953646
Ni  4.535794  4.595735  0.889005
Al  0.976180 11.718798  0.802234
Ni  0.950560  6.441468  2.740111
Ni  2.755335  8.163136  2.698007
Ni  6.382182  6.399830  0.944045
Ni  4.550748  8.186551  0.857020
Al  6.451811  8.167231 13.604456
Ni  6.339717  8.219630  2.714466
Ni  8.207425  4.601531  4.507742
Ni  8.225777  8.153179  0.939752
Al  4.593641  8.086880 11.642668
Ni  0.913404  9.920072  2.642535
Ni  0.919566  9.921318 13.529481
Ni  2.737191 11.725671  2.659891
Ni  6.369161  9.990735  0.881397
Al  0.933833  4.702401  0.954467
Ni  2.762009  9.947832  0.813847
Ni  6.347736 11.719874  2.684892
Ni  8.210562  9.943865  2.723200
Ni  8.232145 11.747205  0.926775
Ni  4.594522  9.981228 13.439364
Ni  0.906483 13.558755  6.318651
Ni  0.979581  0.899464  4.482810
Ni  2.731439  0.869782  6.334798
Ni  4.591196 13.541780  6.356842
Al  6.398960  4.636282 13.666351
Ni  2.698748 13.497592  4.508153
Al  2.873565  4.610466 13.450610
Ni  8.286444 13.507228  6.313343
Ni  8.211498  0.902843  4.478603
Ni  6.417407 13.544428  4.500659
Al  0.908962  2.604482 13.501716
Ni  0.939763  2.724776  6.300132
Ni  2.844425  4.529071  6.355400
Ni  4.634284  2.606184  6.236909
Ni  4.572242  4.492316  4.488488
Ni  2.749133  2.706850  4.500002
Ni  6.388912  4.454901  6.327211
Ni 10.005564  0.908193  6.301038
Al  4.661566 11.836078  8.289084
Ni  8.253397  2.735011  6.294670
Ni  1.009162  6.385948  6.346235
Ni  2.767492  9.994038  4.537660
Al  2.803075  6.296572  8.142271
Ni  2.826942  6.415398  4.584446
Ni  6.362668  8.230376  6.352769
Al  0.911579  6.294932  9.948326
Ni  8.196336  8.191548  4.550890
Ni  4.577199  8.228994  4.530943
Ni  0.953141  9.984786  6.352439
Al  6.505091  4.548816  9.953586
Al  4.605649  4.299867  8.124467
Ni  4.616712 10.061639  6.384973
Ni  4.553988 11.782771  4.498247
Al  0.805595  2.831560  9.969082
Ni  6.404321 11.781930  6.362776
Ni  8.221635 11.709920  4.527221
Al  6.587726  0.841181  9.918170
Ni  0.915364  0.930889  8.174001
Al  6.537981  2.690661 11.871489
Al  4.553145  0.902626  8.061350
Al  2.711742  0.949791  9.968560
Ni  2.728763 13.583222  8.177804
Al  0.809584 13.502567  9.936592
Ni  8.313591 13.543194  9.957861
Ni  6.469939 13.585104  8.147431
Al  6.392036 10.016240  4.518502
Al  8.172950  9.953626  6.436244
Al  4.488039  9.911136  2.681129
Ni  0.927852  4.536705  8.110328
Ni  2.772076  4.466983  9.949507
Al  2.776354 11.789521  6.390418
Al  0.960250 11.672851  4.461257
Ni  2.736885  2.686382  8.146787
Ni  4.675341  2.584262 10.010498
Ni  8.248939  2.732318  9.964417
Ni  8.228705  4.554862  8.117151
Ni  6.468239  2.645643  8.135293
Al  8.007703  6.375969  6.257775
Ni  0.979903  8.135184  8.113538
Ni  2.752864  8.113405  9.913123
Ni  4.603471  6.251596  9.887489
Ni  4.583205  8.138002  8.155102
Al  2.846207  8.313754  6.385501
Ni  6.403860  8.117350  9.941652
Ni  8.236784  6.351863  9.930621
Ni  8.218025  8.129514  8.148484
Ni  6.370775  6.293736  8.114152
Al  4.808419  6.335373  6.133800
Al  0.972267  8.195562  4.535753
Ni  0.908860  9.951389  9.897112
Ni  0.923327 11.777601  8.120180
Ni  2.741895 11.794423  9.940520
Ni  4.572404  9.960366  9.991992
Al  6.507096  2.778557  4.463178
Ni  2.792374 10.007107  8.185223
Ni  6.441470 11.803030  9.989323
Ni  8.250973  9.938852  9.935084
Ni  8.250479 11.747464  8.171227
Ni  6.404710  9.980862  8.206214
Ni  0.889954 13.567353 13.516438
Ni  0.900426  0.898379 11.704060
Ni  2.742791  0.887656 13.525492
Ni  4.610967 13.486798 13.530303
Ni  4.602728 13.701543  9.958732
Ni  2.712778 13.573593 11.703274
Ni  6.428623  0.896415 13.592687
Ni  8.271758 13.564029 13.596736
Ni  8.268389  0.908582 11.799375
Ni  6.480076 13.584296 11.769798
Al  1.044428  4.650899  4.574921
Ni  0.884972  6.316640 13.524126
Al  6.569836  0.813988  6.336728
Ni  2.774413  6.386431  0.862533
Ni  4.602426  2.735827 13.580000
Ni  4.683890  4.492917 11.728665
Ni  2.752491  2.722042 11.759231
Al  4.468646  0.763284  4.508699
Ni  8.194716  0.899942  0.953597
Ni  8.210379  4.550616 11.805011
Ni  8.231326  2.755117 13.660628
Al  4.502779 11.800877  0.829003
Ni  0.908283  8.088448 11.733576
Ni  0.878289  4.552678 11.812544
Ni  2.787187  8.127925 13.463543
Ni  4.621892  6.391750 13.528687
Al  8.005820  6.401901  2.816115
Ni  2.769538  6.323686 11.682072
Al  4.603354  6.383768  2.765859
Ni  8.224745  6.373776 13.601900
Ni  8.225934  8.152580 11.755547
Ni  6.440920  6.352780 11.757849
Al  0.988514  8.142600  0.818044
Ni  0.915029 11.762556 11.740592
Al  4.560163  0.808140  0.798476
Al  4.577633  0.835037 11.900346
Ni  2.756368 11.744534 13.457731
Al  4.461830  2.819121  2.618178
Al  1.056497  2.615150  2.625701
Ni  6.433645  9.939794 11.736254
Ni  8.249604  9.930332 13.581383
Ni  8.263337 11.742541 11.750875
%ENDBLOCK POSITIONS_ABS

FIX_ALL_CELL: TRUE
KPOINT_MP_GRID: 1 1 1
