#######################################################
#CASTEP cell file: /home/u2093113/Documents/kART/barriers/CASTEP/castep.cell
#Created using the Atomic Simulation Environment (ASE)#
#######################################################

%BLOCK LATTICE_CART
14.464828  0.000000  0.000000
 0.000000 14.464828  0.000000
 0.000000  0.000000 14.464828
%ENDBLOCK LATTICE_CART

%BLOCK POSITIONS_ABS
Ni  0.838541 11.825580 11.810981
Ni  0.828523 13.616425 10.007991
Ni  0.833123  0.960609 11.818569
Ni  0.820860  2.767519 10.022231
Ni  0.813370  4.585999 11.828892
Ni  0.829388  6.408974 10.007687
Ni  0.825768  8.220783 11.798489
Ni  0.831412 10.034330 10.002528
Ni  0.839972 11.831766  0.939444
Ni  0.846427 13.628485 13.612772
Ni  0.870128  0.969133  0.940948
Ni  0.839089  2.775126 13.611784
Ni  0.808850  4.603976  0.915900
Ni  0.807570  6.407231 13.590626
Ni  0.785317  8.209427  0.928650
Ni  0.814484 10.022467 13.593881
Ni  0.801093 11.842668  4.542419
Ni  0.838644 13.641437  2.740616
Ni  0.844781  0.948197  4.559429
Ni  0.848832  2.791238  2.730173
Ni  0.860616  4.607572  4.551085
Ni  0.776091  6.428164  2.727377
Ni  0.798273  8.241489  4.550296
Ni  0.800140 10.029870  2.740285
Ni  0.816534 11.827826  8.193409
Ni  0.806980 13.601069  6.378742
Ni  0.864654  0.950043  8.202137
Ni  0.953115  2.770399  6.397683
Ni  0.859616  4.593281  8.182529
Ni  0.803265  6.435151  6.367090
Ni  0.824664  8.241918  8.171709
Ni  0.799772 10.054321  6.359854
Ni  2.646650 13.612185 11.801692
Ni  4.447870 11.821631 11.794946
Ni  4.447296 13.604499  9.994639
Ni  2.618466 11.829154  9.992451
Ni  6.289987 13.625333 11.731152
Ni  8.017433 11.720009 11.738982
Ni  8.083556 13.601073  9.923065
Ni  6.238048 11.772839  9.975220
Ni  9.848199 13.559845 11.735871
Ni 11.684966 11.740483 11.741120
Al 13.688737 10.032417  8.122165
Ni  9.843320 11.769058  9.929897
Ni 13.504009 13.596161 11.785475
Ni 13.513348  2.832288 11.766115
Ni 13.555877 11.802235  9.968474
Ni  2.638966  2.779803 11.802854
Ni  4.460559  0.960777 11.820842
Ni  4.438169  2.789238 10.058959
Ni  2.625579  0.939283 10.033752
Ni  6.336823  2.787202 11.813391
Al  9.736263  8.167918  6.339757
Ni  9.908167  1.023645  9.962757
Ni  6.260787  0.999756 10.018213
Ni  9.874733  2.850285 11.749148
Al 11.698637 10.114489  6.299687
Al  6.093081  9.899540 11.697749
Al  6.360956  8.167465  6.368280
Ni 13.518692  4.619106 13.566493
Ni 11.740475  2.786164  9.964599
Ni  2.619437  6.387968 11.831294
Ni  4.434513  4.591135 11.823121
Al  6.036844  4.684793  6.379153
Ni  2.570591  4.582079 10.022176
Al  8.107623  9.953650  9.879309
Ni  8.083739  4.694398 11.763228
Al  4.313306  8.300807  8.146390
Ni  6.213266  4.626388  9.952062
Ni  9.894023  6.404972 11.726689
Ni 13.540033  4.596901  9.955480
Ni 11.721226  6.421347  9.908751
Al 13.606221  6.405957  8.197427
Ni 13.500956  6.448159 11.748176
Al 11.740050  6.349005  6.267750
Ni  2.651115 10.025339 11.812068
Ni  4.367578  8.169465 11.769360
Ni  4.382938 10.009155  9.956250
Ni  2.575185  8.221555  9.982924
Ni  6.183997  8.137843  9.928532
Ni  8.042448  8.129523 11.667359
Ni  6.142265  6.404275  8.192211
Ni  8.049564  8.165534  8.159883
Ni  9.871262  9.943332 11.721149
Ni 13.522384  8.249663  9.933556
Al  8.068649  2.974801  9.942577
Ni  9.907477  8.183867  9.878424
Ni 13.494764  9.964684 11.750462
Ni 11.744943  8.228882  8.053221
Ni  2.680681 13.620120  0.979823
Al  6.060835  2.733400  8.192391
Ni  4.449649 13.619291 13.594959
Ni  2.635072 11.812020 13.629011
Ni  6.242090 13.636500  0.942737
Ni  8.054843 11.787595  0.912362
Ni  8.102970 13.614663 13.557492
Al  2.612393  4.742521  6.358111
Ni  9.890137 13.593311  0.907230
Ni 11.703810 11.799617  0.956698
Al 13.663454 13.573627  8.154003
Ni  9.822410 11.718912 13.575277
Al 10.036194  2.779131  8.093678
Ni 13.546161 11.780144 13.577506
Ni  2.677268  2.804553  0.973409
Al  8.045466 13.660078  6.541644
Ni  4.476165  2.781511 13.587995
Ni  2.630197  0.976981 13.590788
Ni  6.287688  2.788805  0.874000
Ni  8.091346  1.000876  0.900797
Al  2.621391  0.802912  6.386138
Al  2.638928  2.756549  8.326345
Ni  9.943336  2.854933  0.974227
Ni  9.845117  0.983463 13.545314
Ni 11.674722  2.796336 13.547357
Ni 11.682069  0.955663 11.798309
Ni 13.470457  2.719244  0.931962
Al 11.780809 10.070605  2.897319
Ni  2.625234  6.447584  0.905433
Ni  4.456249  4.602137  0.939538
Ni  4.439773  6.400624 13.611414
Ni  2.617561  4.583894 13.626059
Ni  6.274924  6.435011  0.908199
Ni  8.133958  4.672875  0.951178
Al  4.441063  8.175606  4.462189
Ni  6.285077  4.629670 13.599682
Ni  9.901725  8.215929 13.580262
Al  2.562260 10.098186  4.537351
Al  9.878257  4.610192  2.802938
Ni  9.943601  4.696918 13.625868
Ni 13.500231  6.446495  0.981570
Al  8.015758  4.588473  4.600267
Ni 11.711244  6.463793 13.593619
Al  2.556826  4.723030  2.662516
Ni  4.433133  8.235111  0.943511
Ni  4.449091 10.034711 13.613522
Ni  2.603487  8.217875 13.602786
Ni  6.264154 10.025107  0.888716
Ni  8.075709  8.224983  0.948072
Al 13.633819  2.710958  4.659772
Ni  6.240320  8.203001 13.565059
Al 11.714681  2.679831  2.860012
Ni 11.762323  8.277580  0.986426
Ni 11.694192 10.002780 13.568091
Al  8.020029  1.102117  4.540674
Ni 13.520946 10.032233  0.979008
Al  4.592521  2.824552  2.734467
Al  2.580480  2.738084  4.520461
Ni  2.642674 13.602411  4.554930
Ni  4.478406 11.793860  4.559877
Al 13.675193 13.634933  4.572536
Ni  2.634910 11.825664  2.736995
Ni  6.360172 13.652943  4.607797
Ni  6.272572 11.806927  6.369873
Ni  8.076928 13.644168  2.732354
Ni  6.260357 11.824397  2.736384
Al 13.535993  2.815228  8.095317
Al 11.597522  1.003161  0.835816
Al 11.550895 13.568238  2.804864
Ni  9.847314 11.777784  2.754970
Al  8.022820 11.764057  4.512876
Al  4.498093 13.646696  2.921169
Ni 13.557776 11.855170  2.787206
Al 13.538053  8.231825 13.587683
Ni  4.469107  0.998046  4.571783
Ni  2.681385  0.987672  2.756646
Ni  6.223550  2.845494  4.633091
Al 11.648513  8.143382 11.732504
Ni  8.046169  2.827039  2.730740
Ni  6.259238  0.991268  2.720920
Ni  9.849478  2.785342  4.593701
Al  9.914465  9.988317  0.970740
Al  8.089444  9.885703 13.510810
Ni  9.855057  0.991191  2.740527
Ni 11.702062  0.883743  4.571854
Ni 13.497799  0.891984  2.721307
Ni  2.609795  6.445186  4.513358
Ni  4.359021  4.609873  4.507944
Ni  4.442941  6.402827  2.692803
Al  2.557371  9.944226  0.943797
Ni  6.238172  6.400826  4.550216
Ni  8.097294  6.410305  2.743826
Ni  6.277551  4.634550  2.742729
Ni  9.865389  6.380009  4.580513
Ni 11.727223  4.532024  4.543759
Ni 11.705992  6.395407  2.796526
Al  9.957420  6.585129  0.988901
Ni 13.543864  6.384852  4.568837
Ni 13.508921  4.537612  2.786644
Al 11.835544  4.605459  0.864194
Al  8.093741  6.447124 13.577753
Ni  4.420848 10.017762  2.729442
Ni  2.591301  8.212707  2.750445
Ni  6.241812  9.973691  4.542426
Ni  8.039785  8.182005  4.557961
Ni  8.064970 10.000192  2.735334
Ni  6.255001  8.196313  2.732999
Ni  9.871334 10.019013  4.580107
Ni 11.697775  8.219259  4.629436
Al 13.631119  1.038840 13.459812
Ni  9.922091  8.250382  2.807836
Ni 13.556795 10.055920  4.614490
Ni 13.529479  8.228880  2.826698
Ni  2.657497 13.589604  8.195205
Ni  4.447202 11.795483  8.149224
Ni  4.486683 13.607602  6.342593
Ni  2.623081 11.844082  6.358860
Ni  6.221719 13.651169  8.212492
Ni  8.023903 11.799141  8.178224
Ni  9.737733 13.656743  4.598383
Ni  6.218135  9.970312  8.171825
Ni  9.889292 13.661916  8.195783
Ni 11.739468 11.838766  8.136752
Ni 11.691164 11.914279  4.590495
Ni  9.810370 11.838091  6.363793
Ni 13.571773  0.895109  6.391452
Ni 13.579855 11.870132  6.359889
Al  6.290083  0.916322 13.550564
Ni  4.392709  0.939244  8.202934
Ni  4.278432  2.773330  6.373491
Al  8.176053  2.939510 13.623251
Ni  7.996307  2.946654  6.526615
Al  4.388968  0.956115  0.876806
Al 13.631531 13.516249  0.950978
Ni  6.247182  1.008678  6.403539
Ni  9.933457  4.594194  9.890595
Ni 11.801661  0.909420  8.234586
Ni 11.755680  2.722043  6.323219
Ni  9.823142  1.007886  6.390546
Al 11.589466 13.464986 13.473855
Ni  2.603441  6.440751  8.177550
Ni  4.340370  4.597232  8.184665
Ni  4.398720  6.511614  6.353383
Al  6.292471 11.919619 13.543952
Al  4.447520 11.825251  0.966235
Al 11.647426 10.063236  9.881842
Ni  8.022081  6.257927  6.470364
Ni  8.049495  1.080415  8.240333
Ni  9.953057  6.372785  8.085946
Ni 11.772919  4.607153  8.121803
Ni  9.906929  4.580735  6.350561
Al 11.718458  4.643359 11.772220
Ni 13.582419  4.601629  6.347292
Ni  2.604355 10.060339  8.145429
Al  8.118510  6.311726  9.795656
Ni  4.443258  9.973703  6.314648
Ni  2.586024  8.245019  6.305656
Al  6.172696  6.410771 11.799230
Al  4.291715  6.337647  9.984939
Ni  8.055412 10.020255  6.371399
Al 11.609825 13.540310 10.019935
Al 11.569016 13.634999  6.374958
Ni  9.904072  9.996064  8.090112
Al 13.610390  1.007553 10.129217
Al  8.166245  0.905999 11.680143
Ni 13.574981  8.204280  6.354225
%ENDBLOCK POSITIONS_ABS

FIX_ALL_CELL: TRUE
KPOINT_MP_GRID: 1 1 1
