#######################################################
#CASTEP cell file: /home/u2093113/Documents/kART/CASTEP/castep.cell
#Created using the Atomic Simulation Environment (ASE)#
#######################################################

%BLOCK LATTICE_CART
14.464828  0.000000  0.000000
 0.000000 14.464828  0.000000
 0.000000  0.000000 14.464828
%ENDBLOCK LATTICE_CART

%BLOCK POSITIONS_ABS
Al  8.223184  4.457202  0.928212
Al 11.846052  4.470449  0.913939
Al  8.220849  8.092602  0.970526
Al 11.857777  8.085764  0.926591
Al  8.308755 11.692948  0.846189
Al 11.881274 11.685817  0.893988
Al  8.247292  0.858946  0.913009
Al 11.859440  0.857305  0.891950
Al  8.221304  4.436777  4.527385
Al 11.855646  4.476007  4.504895
Al  8.282657  8.001683  4.508704
Al 11.864969  8.079383  4.519402
Al  8.405069 11.809184  4.533161
Al 11.878706 11.683406  4.522724
Al  8.309351  0.821820  4.451377
Al 11.886636  0.866127  4.500281
Al  8.238458  4.423439  8.115163
Al 11.837174  4.489065  8.130524
Al  8.217454  8.114425  8.110144
Al 11.833446  8.074591  8.123409
Al  8.301732 11.706148  8.198837
Al 11.899597 11.676424  8.149615
Al  8.352346  0.835338  8.239357
Al 11.845914  0.852123  8.151138
Al  8.250936  4.472406 11.762202
Al 11.813353  4.492001 11.764792
Al  8.201837  8.074789 11.767717
Al 11.833034  8.078246 11.763512
Al  8.228615 11.691089 11.775168
Al 11.841580 11.667925 11.778463
Al  8.244032  0.849242 11.751417
Al 11.874789  0.847796 11.778374
Al  4.767125  2.657520 13.544536
Al  0.824873  0.874310 11.747789
Al  2.799538  2.759684 11.633275
Al  4.667192 13.543255 13.633596
Al  2.780565 13.415453 11.674763
Al  4.610720  9.984449 13.689957
Al  0.994362  9.873957 13.548388
Al  2.838336  2.679280  8.261254
Al  0.862437 11.676729  8.275155
Al  4.731945  9.965466  9.950922
Al  2.776532  9.681646  8.158617
Al  4.819099  6.179907  9.849131
Al  4.706430  8.034569 11.865156
Al  2.822744  6.263655  7.958576
Al  0.829773  6.269300  9.937907
Al  4.547054  0.848452  4.520085
Al  6.376097  0.838691  6.442060
Al  2.641569  0.783633  2.684320
Al  0.903225  2.665711  6.268576
Al  6.252120 11.807648  6.381065
Al  0.889937 13.643678  6.279014
Al  2.883207 11.708463  6.233030
Al  6.242077  9.802045  4.489071
Al  5.589406  6.232781  7.107948
Al  2.787564  6.154574  4.587463
Al  2.704866  2.724885  0.885010
Al  6.290763 11.824020  2.651790
Al  2.765339 11.719021  2.703137
Al  2.808987  6.179986  0.829000
Al  2.745963  6.170308 11.931016
Al  2.782295  8.189611  2.703027
Ni  8.198510  6.244975  2.723997
Ni 10.041118  4.459970  2.720661
Ni 10.035998  6.280395  0.941745
Ni 11.864889  6.279451  2.719456
Ni 13.668639  4.483711  2.698987
Ni 13.649727  6.291569  0.920474
Ni  8.176691  9.975231  2.828371
Ni 10.039063  8.087613  2.729947
Ni 10.047542  9.877622  0.934693
Ni 11.869735  9.878630  2.726979
Ni 13.692512  8.078916  2.724111
Ni 13.678828  9.882428  0.920467
Ni  8.252272 13.464103  2.702997
Ni 10.081365 11.695048  2.697801
Ni 10.050169 13.507098  0.896674
Ni 11.870083 13.507896  2.680785
Ni 13.659457 11.686731  2.708647
Ni 13.672163 13.495491  0.883724
Ni  8.227635  2.654986  2.730695
Ni 10.075989  0.850550  2.691187
Ni 10.033506  2.663547  0.905528
Ni 11.856126  2.667851  2.685431
Ni 13.679922  0.859264  2.674756
Ni 13.668009  2.667702  0.896700
Ni  8.193256  6.249035  6.336065
Ni 10.033900  4.465280  6.318895
Ni 10.047151  6.253145  4.513157
Ni 11.834747  6.287617  6.300589
Ni 13.653519  4.496575  6.308046
Ni 13.682290  6.280041  4.504623
Ni  8.178003  9.998518  6.214914
Ni 10.009260  8.087221  6.318324
Ni 10.059613  9.890963  4.525744
Ni 11.860969  9.865348  6.330290
Ni 13.682557  8.078625  6.318141
Ni 13.688800  9.884362  4.533977
Ni  8.246364 13.525342  6.359866
Ni 10.088926 11.704377  6.350441
Ni 10.117663 13.533922  4.520510
Ni 11.892546 13.488793  6.336971
Ni 13.702042 11.680123  6.335775
Ni 13.648223 13.508285  4.481503
Ni  8.250237  2.563283  6.331599
Ni 10.093833  0.835476  6.330304
Ni 10.059332  2.652024  4.521031
Ni 11.855690  2.693297  6.323863
Ni 13.604298  0.887125  6.346760
Ni 13.627702  2.675836  4.469952
Ni  8.178948  6.268097  9.887939
Ni 10.028855  4.482467  9.938352
Ni 10.009508  6.279164  8.121497
Ni 11.845715  6.286822  9.943132
Ni 13.624645  4.449067  9.945405
Ni 13.620267  6.274150  8.088194
Ni  8.198762  9.888337  9.951447
Ni 10.004525  8.078196  9.934445
Ni 10.026870  9.889280  8.119940
Ni 11.824765  9.867767  9.942635
Ni 13.641772  8.102349  9.945483
Ni 13.668517  9.841226  8.141625
Ni  8.256775 13.505998  9.965413
Ni 10.054501 11.677662  9.971679
Ni 10.081921 13.488514  8.151766
Ni 11.855529 13.488475  9.968251
Ni 13.632446 11.658820 10.007945
Ni 13.661751 13.524106  8.167492
Ni  8.263800  2.650683  9.944219
Ni 10.087045  0.843808  9.987860
Ni 10.068559  2.660490  8.133003
Ni 11.830919  2.671125  9.955419
Ni 13.627785  0.872533  9.929631
Ni 13.632732  2.678763  8.152764
Ni  8.234528  6.284636 13.611277
Ni 10.027623  4.476011 13.583393
Ni 10.017507  6.291377 11.755243
Ni 11.821446  6.276230 13.592541
Ni 13.644522  4.484493 13.574393
Ni 13.618654  6.283324 11.797014
Ni  8.224798  9.866238 13.596760
Ni 10.031770  8.082745 13.591558
Ni 10.020388  9.865733 11.764996
Ni 11.857670  9.871307 13.573876
Ni 13.654508  8.065789 13.575163
Ni 13.650642  9.853555 11.745532
Ni  8.237007 13.516163 13.556426
Ni 10.056440 11.678780 13.558205
Ni 10.053375 13.496400 11.769972
Ni 11.845434 13.500152 13.569531
Ni 13.672119 11.699909 13.540840
Ni 13.639596 13.472394 11.756915
Ni  8.222555  2.664958 13.571093
Ni 10.042735  0.854847 13.563792
Ni 10.043284  2.666646 11.768237
Ni 11.842955  2.675695 13.576741
Ni 13.636399  0.846387 13.583067
Ni 13.600673  2.708250 11.762749
Ni  1.033601  6.286283  2.709277
Ni  2.797343  4.445106  2.717208
Ni  0.955033  4.493248  0.894059
Ni  4.559614  6.259477  2.742915
Ni  6.375810  4.437673  2.740782
Ni  4.596872  8.041232  0.930515
Ni  4.638992  4.419948  0.923274
Ni  0.990811  8.054002  0.917958
Ni  0.963248  9.903593  2.712121
Ni  4.611347  9.902954  2.665923
Ni  6.375621  8.042940  2.736677
Ni  6.435111  9.917243  0.963282
Ni  2.759282  9.906178  0.893320
Ni  0.939130 13.476813  2.707947
Ni  4.543384 11.751556  0.909918
Ni  2.752055 13.529452  0.857101
Ni  4.560374 13.598601  2.693437
Ni  4.611042 11.745485  4.478816
Ni  6.435352 13.539087  0.912235
Ni  0.971405  2.678182  2.688394
Ni  4.566616  0.906213  0.905932
Ni  0.988166  0.853703  0.844510
Ni  4.577073  2.613812  2.710635
Ni  6.415385  0.829912  2.689398
Ni  6.421662  2.642785  0.956680
Ni  2.783009  0.898483 13.476157
Ni  0.970267  6.246744  6.299301
Ni  2.804661  4.378740  6.337071
Ni  0.964994  4.455162  4.487580
Ni  6.427478  4.339401  6.308509
Ni  6.371047  6.243123  4.537245
Ni  4.605932  4.404798  4.530652
Ni  1.046200  9.922056  6.364603
Ni  2.803634  8.041094  6.282069
Ni  2.809221  9.899685  4.516800
Ni  1.020756  8.083607  4.520431
Ni  4.585790  9.856736  6.325770
Ni  6.440575  8.124104  6.305444
Ni  4.534189  8.014662  4.527561
Ni  0.924407  0.887724  4.487718
Ni  0.977928 11.694301  4.537809
Ni  4.549236 13.586647  6.352947
Ni  6.410809 13.551350  4.531922
Ni  2.747831 13.539883  4.526821
Ni  2.738853  0.921969  6.383604
Ni  2.782221  2.647343  4.479943
Ni  4.611604  2.632749  6.323457
Ni  6.405473  2.555421  4.525398
Ni  0.964358  4.467462  8.121353
Ni  6.455322  4.404867  9.934538
Ni  4.653094  4.442136  8.111327
Ni  1.018053  9.803207  9.967224
Ni  0.974907  8.016554  8.124119
Ni  2.884570  7.879644 10.030559
Ni  6.377145  8.087718  9.936731
Ni  6.439508  9.925766  8.087999
Ni  4.650072  8.061266  8.095147
Ni  0.956153 13.519762  9.971632
Ni  2.778225 11.620793  9.909311
Ni  2.691248 13.479339  8.096692
Ni  4.590712 13.487470  9.919683
Ni  6.425943 11.735298  9.959991
Ni  6.406979 13.507764  8.181922
Ni  4.511153 11.696097  8.160176
Ni  0.949874  2.713550  9.961848
Ni  2.755235  0.831152 10.013991
Ni  0.971501  0.907739  8.202621
Ni  4.647835  2.666782  9.956918
Ni  6.404248  0.842240  9.949095
Ni  6.422176  2.619198  8.153807
Ni  4.558257  0.832881  8.198715
Ni  0.939752  6.274751 13.590460
Ni  2.819672  4.356554 13.551329
Ni  2.796964  4.661246  9.922964
Ni  0.939438  4.482538 11.762625
Ni  4.650417  6.215531 13.579646
Ni  6.443091  4.491831 13.573092
Ni  6.452978  6.257893 11.770335
Ni  4.664183  4.461338 11.746003
Ni  0.974953 11.713179  0.887620
Ni  2.827297  8.084931 13.561287
Ni  2.892791  9.857491 11.717987
Ni  1.000891  8.046394 11.760414
Ni  6.392015  6.253129  0.941436
Ni  6.391454  9.890335 11.816422
Ni  6.409903  8.066497 13.632548
Ni  0.989996 13.508258 13.514242
Ni  2.772499 11.728795 13.544903
Ni  0.986926 11.644622 11.716811
Ni  6.432977 11.709417 13.591584
Ni  6.414591 13.507187 11.733573
Ni  4.636231 11.747029 11.775682
Ni  0.942765  2.671590 13.526481
Ni  4.627405  0.834764 11.728044
Ni  6.443233  0.848129 13.552448
Ni  6.465404  2.649129 11.723700
%ENDBLOCK POSITIONS_ABS

