#######################################################
#CASTEP cell file: /home/u2093113/Documents/kART/CASTEP/castep.cell
#Created using the Atomic Simulation Environment (ASE)#
#######################################################

%BLOCK LATTICE_CART
14.464828  0.000000  0.000000
 0.000000 14.464828  0.000000
 0.000000  0.000000 14.464828
%ENDBLOCK LATTICE_CART

%BLOCK POSITIONS_ABS
Al  8.229779  4.449361  0.927017
Al 11.848989  4.462161  0.915465
Al  8.227106  8.096206  0.968382
Al 11.859688  8.087253  0.928075
Al  8.311792 11.696831  0.851405
Al 11.884475 11.687771  0.899305
Al  8.250362  0.853781  0.919449
Al 11.861956  0.853226  0.898583
Al  8.225659  4.430148  4.516654
Al 11.849695  4.474479  4.515834
Al  8.288819  8.002060  4.496105
Al 11.856976  8.074584  4.526800
Al  8.401441 11.804926  4.538861
Al 11.876531 11.681192  4.531260
Al  8.306624  0.823371  4.456883
Al 11.886011  0.864486  4.511650
Al  8.177252  4.475073  8.128989
Al 11.827552  4.489620  8.136513
Al  8.164225  8.056576  8.129984
Al 11.821312  8.069662  8.127502
Al  8.300573 11.706355  8.201764
Al 11.893947 11.669945  8.149495
Al  8.351221  0.831669  8.242371
Al 11.837657  0.854002  8.152469
Al  8.259254  4.460493 11.782058
Al 11.807385  4.486166 11.761929
Al  8.208347  8.080733 11.789014
Al 11.828003  8.080541 11.762756
Al  8.233224 11.692696 11.779644
Al 11.841008 11.667924 11.777985
Al  8.251136  0.845676 11.754441
Al 11.878933  0.842826 11.775236
Al  4.764603  2.654284 13.543985
Al  0.825157  0.872490 11.743943
Al  2.803852  2.759093 11.634116
Al  4.662709 13.541429 13.636151
Al  2.779529 13.411833 11.672780
Al  4.608697  9.987677 13.690788
Al  0.987532  9.873186 13.551088
Al  2.854049  2.699056  8.264758
Al  0.866917 11.666259  8.274858
Al  4.727762  9.973622  9.964282
Al  2.790944  9.654599  8.156128
Al  4.930201  6.194209  9.774611
Al  4.710747  8.026903 11.865856
Al  2.769033  6.272988  8.037110
Al  0.819560  6.266264  9.957757
Al  4.544609  0.851146  4.525757
Al  6.374069  0.843136  6.444277
Al  2.639506  0.784392  2.692304
Al  0.913616  2.674225  6.276038
Al  6.249732 11.799011  6.381090
Al  0.892964 13.640323  6.283843
Al  2.885762 11.700762  6.237209
Al  6.237781  9.791490  4.486046
Al  4.889872  6.225433  6.373803
Al  2.730134  6.152662  4.529241
Al  2.698210  2.717144  0.880842
Al  6.288740 11.821951  2.654110
Al  2.763909 11.712641  2.709946
Al  2.802545  6.178202  0.823573
Al  2.759102  6.167914 11.928900
Al  2.770887  8.196161  2.690909
Ni  8.215008  6.242659  2.703039
Ni 10.047299  4.455488  2.721824
Ni 10.047298  6.276482  0.939378
Ni 11.862844  6.275995  2.723297
Ni 13.663004  4.479345  2.701924
Ni 13.641082  6.289992  0.915051
Ni  8.176937  9.977092  2.827985
Ni 10.045456  8.086444  2.728755
Ni 10.053400  9.881044  0.939217
Ni 11.869007  9.877988  2.733873
Ni 13.687661  8.076806  2.727644
Ni 13.676293  9.884647  0.924832
Ni  8.251566 13.462070  2.709335
Ni 10.082939 11.693987  2.706146
Ni 10.054503 13.507010  0.903361
Ni 11.871312 13.507489  2.690746
Ni 13.658569 11.686211  2.718427
Ni 13.673081 13.494253  0.890255
Ni  8.229970  2.650749  2.729338
Ni 10.077183  0.847833  2.700752
Ni 10.039856  2.656394  0.910180
Ni 11.856062  2.662565  2.692304
Ni 13.683510  0.857622  2.684259
Ni 13.668836  2.662392  0.899460
Ni  8.163024  6.245787  6.322184
Ni 10.014569  4.467502  6.331349
Ni 10.042150  6.249557  4.516895
Ni 11.824145  6.285199  6.310614
Ni 13.649727  4.493666  6.317886
Ni 13.676684  6.276956  4.510162
Ni  8.170891  9.994886  6.224107
Ni  9.987636  8.081032  6.329559
Ni 10.055978  9.887086  4.531381
Ni 11.851917  9.858864  6.337126
Ni 13.676494  8.075712  6.322523
Ni 13.687002  9.881074  4.541548
Ni  8.240567 13.524382  6.362473
Ni 10.083408 11.700074  6.355299
Ni 10.114739 13.532347  4.527756
Ni 11.892098 13.486203  6.343149
Ni 13.706055 11.672681  6.340316
Ni 13.651711 13.506395  4.492175
Ni  8.245738  2.566551  6.342370
Ni 10.088605  0.834019  6.335221
Ni 10.057514  2.651205  4.529051
Ni 11.849821  2.694444  6.335239
Ni 13.607556  0.888876  6.355749
Ni 13.624477  2.672789  4.479527
Ni  8.166231  6.265129  9.937948
Ni 10.017278  4.480680  9.939756
Ni  9.978323  6.276057  8.129564
Ni 11.839269  6.285356  9.944390
Ni 13.622586  4.445054  9.947808
Ni 13.615672  6.271900  8.094506
Ni  8.203082  9.888778  9.957093
Ni  9.993352  8.074328  9.939050
Ni 10.004977  9.873597  8.123145
Ni 11.816784  9.865944  9.942052
Ni 13.636362  8.103147  9.947781
Ni 13.664893  9.838869  8.144176
Ni  8.259631 13.504348  9.969869
Ni 10.054198 11.677890  9.971653
Ni 10.079366 13.486201  8.152099
Ni 11.855960 13.485570  9.965200
Ni 13.631604 11.653755 10.004495
Ni 13.665287 13.521833  8.168599
Ni  8.268330  2.646747  9.946904
Ni 10.086997  0.840202  9.988616
Ni 10.049796  2.671088  8.136896
Ni 11.825783  2.668415  9.953563
Ni 13.632226  0.873952  9.925509
Ni 13.635268  2.678337  8.157177
Ni  8.239152  6.281793 13.619115
Ni 10.033518  4.467952 13.590457
Ni 10.018598  6.288648 11.763629
Ni 11.818760  6.273224 13.589993
Ni 13.642804  4.481052 13.571637
Ni 13.612344  6.282628 11.800884
Ni  8.228426  9.872025 13.604625
Ni 10.036948  8.084890 13.597723
Ni 10.021681  9.868824 11.769627
Ni 11.859921  9.874451 13.574740
Ni 13.650937  8.066118 13.573592
Ni 13.650575  9.853621 11.743206
Ni  8.241500 13.515998 13.559173
Ni 10.060154 11.680771 13.564407
Ni 10.058128 13.495330 11.772588
Ni 11.847779 13.499240 13.571432
Ni 13.672896 11.701567 13.541235
Ni 13.642287 13.470576 11.752660
Ni  8.227719  2.654777 13.580374
Ni 10.048720  0.850702 13.568848
Ni 10.045593  2.659170 11.772375
Ni 11.846325  2.669037 13.576468
Ni 13.636774  0.842383 13.582951
Ni 13.601615  2.704876 11.759516
Ni  1.013794  6.283494  2.696764
Ni  2.788286  4.438115  2.705230
Ni  0.949046  4.490231  0.887631
Ni  4.553224  6.255423  2.715808
Ni  6.378386  4.430334  2.726949
Ni  4.593956  8.041904  0.926139
Ni  4.635705  4.411740  0.919156
Ni  0.982390  8.052650  0.914596
Ni  0.958273  9.901779  2.714971
Ni  4.607404  9.900483  2.662032
Ni  6.377621  8.046822  2.718064
Ni  6.432108  9.921454  0.960375
Ni  2.752429  9.909453  0.889232
Ni  0.941318 13.475194  2.717934
Ni  4.537707 11.753145  0.912280
Ni  2.748347 13.529097  0.862448
Ni  4.557141 13.597734  2.698468
Ni  4.610928 11.738809  4.479912
Ni  6.433661 13.539152  0.916844
Ni  0.970858  2.676183  2.692931
Ni  4.563520  0.903119  0.905722
Ni  0.987191  0.849926  0.848278
Ni  4.572158  2.611073  2.710861
Ni  6.413178  0.827730  2.692314
Ni  6.421053  2.635084  0.956296
Ni  2.779403  0.893431 13.475290
Ni  0.958427  6.244283  6.306221
Ni  2.824983  4.431099  6.340780
Ni  0.953707  4.448128  4.491899
Ni  6.437833  4.334963  6.300008
Ni  6.406334  6.243714  4.473554
Ni  4.605751  4.423891  4.518419
Ni  1.055685  9.905705  6.370126
Ni  2.824643  7.989357  6.286610
Ni  2.810794  9.887644  4.522924
Ni  1.019187  8.081239  4.523694
Ni  4.585912  9.845307  6.324155
Ni  6.454467  8.119594  6.298084
Ni  4.532455  7.999632  4.505503
Ni  0.928189  0.891589  4.498034
Ni  0.979061 11.686002  4.545314
Ni  4.551446 13.584182  6.357158
Ni  6.406994 13.549317  4.536876
Ni  2.749531 13.537580  4.534962
Ni  2.744850  0.924918  6.389760
Ni  2.783309  2.660455  4.488886
Ni  4.611379  2.640612  6.322181
Ni  6.405788  2.557026  4.521379
Ni  0.967410  4.465306  8.129605
Ni  6.466364  4.366097  9.979538
Ni  4.683945  4.446526  8.117865
Ni  1.023956  9.796390  9.965634
Ni  0.965033  8.015166  8.130522
Ni  2.900965  7.870488 10.041209
Ni  6.391221  8.129646  9.983753
Ni  6.444239  9.914837  8.095856
Ni  4.690271  8.051564  8.108427
Ni  0.958852 13.515849  9.968589
Ni  2.780502 11.615903  9.906728
Ni  2.693188 13.475636  8.094658
Ni  4.591957 13.482655  9.916885
Ni  6.430679 11.734334  9.963538
Ni  6.408893 13.505423  8.182682
Ni  4.514981 11.687472  8.159095
Ni  0.960233  2.716051  9.962935
Ni  2.758433  0.830284 10.011062
Ni  0.978441  0.911703  8.203955
Ni  4.652193  2.659840  9.966054
Ni  6.407820  0.839179  9.952359
Ni  6.425418  2.625421  8.159106
Ni  4.562876  0.835029  8.200023
Ni  0.940604  6.274859 13.586277
Ni  2.820150  4.351807 13.548284
Ni  2.824310  4.679054  9.933279
Ni  0.942319  4.480865 11.764480
Ni  4.649553  6.212089 13.583208
Ni  6.444719  4.486627 13.577333
Ni  6.455205  6.255418 11.783096
Ni  4.671381  4.465759 11.744535
Ni  0.971542 11.715248  0.891919
Ni  2.827810  8.084906 13.560280
Ni  2.892864  9.859490 11.724168
Ni  1.002866  8.046825 11.762557
Ni  6.394016  6.249716  0.938054
Ni  6.393270  9.902899 11.835433
Ni  6.410846  8.066455 13.637833
Ni  0.988700 13.507780 13.513940
Ni  2.766720 11.729641 13.546895
Ni  0.986979 11.640045 11.713396
Ni  6.433053 11.716560 13.598847
Ni  6.418557 13.506765 11.735311
Ni  4.637333 11.751379 11.779316
Ni  0.941326  2.666238 13.523738
Ni  4.630230  0.827111 11.731475
Ni  6.445865  0.840278 13.558338
Ni  6.470327  2.632633 11.739927
%ENDBLOCK POSITIONS_ABS

