#######################################################
#CASTEP cell file: /home/u2093113/Documents/kART/CASTEP/castep.cell
#Created using the Atomic Simulation Environment (ASE)#
#######################################################

%BLOCK LATTICE_CART
14.464828  0.000000  0.000000
 0.000000 14.464828  0.000000
 0.000000  0.000000 14.464828
%ENDBLOCK LATTICE_CART

%BLOCK POSITIONS_ABS
Al  8.216588  4.465042  0.929407
Al 11.843115  4.478737  0.912414
Al  8.214593  8.088997  0.972671
Al 11.855865  8.084275  0.925106
Al  8.305719 11.689064  0.840972
Al 11.878073 11.683863  0.888671
Al  8.244222  0.864111  0.906570
Al 11.856924  0.861383  0.885317
Al  8.216950  4.443406  4.538115
Al 11.861597  4.477536  4.493956
Al  8.276494  8.001305  4.521303
Al 11.872962  8.084181  4.512003
Al  8.408698 11.813441  4.527461
Al 11.880882 11.685620  4.514187
Al  8.312078  0.820270  4.445871
Al 11.887260  0.867769  4.488912
Al  8.299663  4.371805  8.101337
Al 11.846796  4.488510  8.124536
Al  8.270682  8.172273  8.090303
Al 11.845579  8.079519  8.119317
Al  8.302890 11.705940  8.195909
Al 11.905247 11.682903  8.149734
Al  8.353470  0.839006  8.236342
Al 11.854172  0.850244  8.149807
Al  8.242618  4.484320 11.742346
Al 11.819320  4.497835 11.767655
Al  8.195328  8.068846 11.746419
Al 11.838065  8.075951 11.764269
Al  8.224006 11.689482 11.770691
Al 11.842153 11.667925 11.778940
Al  8.236927  0.852808 11.748392
Al 11.870644  0.852765 11.781512
Al  4.769646  2.660756 13.545088
Al  0.824590  0.876130 11.751636
Al  2.795225  2.760274 11.632433
Al  4.671675 13.545080 13.631040
Al  2.781600 13.419074 11.676746
Al  4.612743  9.981221 13.689126
Al  1.001191  9.874728 13.545688
Al  2.822622  2.659503  8.257750
Al  0.857958 11.687199  8.275452
Al  4.736128  9.957309  9.937562
Al  2.762120  9.708693  8.161105
Al  4.707997  6.165605  9.923651
Al  4.702114  8.042236 11.864457
Al  2.876455  6.254321  7.880042
Al  0.839986  6.272337  9.918056
Al  4.549498  0.845759  4.514413
Al  6.378125  0.834246  6.439844
Al  2.643632  0.782873  2.676337
Al  0.892834  2.657197  6.261114
Al  6.254507 11.816285  6.381039
Al  0.886911 13.647033  6.274184
Al  2.880652 11.716164  6.228850
Al  6.246373  9.812601  4.492096
Al  6.288941  6.240130  7.842092
Al  2.844994  6.156486  4.645684
Al  2.711522  2.732625  0.889178
Al  6.292785 11.826089  2.649470
Al  2.766768 11.725402  2.696328
Al  2.815430  6.181771  0.834427
Al  2.732824  6.172701 11.933131
Al  2.793704  8.183061  2.715146
Ni  8.182012  6.247291  2.744955
Ni 10.034937  4.464453  2.719498
Ni 10.024698  6.284308  0.944112
Ni 11.866935  6.282907  2.715614
Ni 13.674274  4.488078  2.696050
Ni 13.658372  6.293146  0.925897
Ni  8.176445  9.973371  2.828756
Ni 10.032671  8.088781  2.731138
Ni 10.041685  9.874199  0.930169
Ni 11.870462  9.879272  2.720085
Ni 13.697363  8.081026  2.720578
Ni 13.681362  9.880208  0.916103
Ni  8.252978 13.466137  2.696659
Ni 10.079791 11.696108  2.689455
Ni 10.045834 13.507186  0.889987
Ni 11.868854 13.508303  2.670823
Ni 13.660346 11.687250  2.698867
Ni 13.671245 13.496729  0.877192
Ni  8.225300  2.659222  2.732053
Ni 10.074795  0.853268  2.681622
Ni 10.027156  2.670700  0.900876
Ni 11.856189  2.673136  2.678559
Ni 13.676334  0.860905  2.665254
Ni 13.667182  2.673013  0.893939
Ni  8.223488  6.252283  6.349947
Ni 10.053232  4.463058  6.306441
Ni 10.052151  6.256733  4.509419
Ni 11.845350  6.290034  6.290565
Ni 13.657311  4.499484  6.298206
Ni 13.687895  6.283126  4.499084
Ni  8.185116 10.002149  6.205721
Ni 10.030884  8.093409  6.307090
Ni 10.063247  9.894840  4.520107
Ni 11.870021  9.871831  6.323453
Ni 13.688620  8.081539  6.313759
Ni 13.690599  9.887649  4.526407
Ni  8.252162 13.526302  6.357259
Ni 10.094443 11.708680  6.345583
Ni 10.120586 13.535497  4.513264
Ni 11.892993 13.491382  6.330793
Ni 13.698029 11.687565  6.331235
Ni 13.644736 13.510175  4.470831
Ni  8.254735  2.560015  6.320829
Ni 10.099062  0.836932  6.325386
Ni 10.061151  2.652843  4.513012
Ni 11.861559  2.692150  6.312488
Ni 13.601039  0.885373  6.337771
Ni 13.630927  2.678884  4.460377
Ni  8.191665  6.271065  9.837930
Ni 10.040432  4.484254  9.936948
Ni 10.040693  6.282272  8.113429
Ni 11.852162  6.288288  9.941873
Ni 13.626704  4.453080  9.943003
Ni 13.624862  6.276400  8.081883
Ni  8.194441  9.887896  9.945801
Ni 10.015699  8.082063  9.929839
Ni 10.048762  9.904963  8.116736
Ni 11.832745  9.869591  9.943219
Ni 13.647182  8.101551  9.943185
Ni 13.672141  9.843582  8.139074
Ni  8.253920 13.507649  9.960958
Ni 10.054804 11.677434  9.971705
Ni 10.084475 13.490826  8.151433
Ni 11.855099 13.491381  9.971301
Ni 13.633288 11.663884 10.011396
Ni 13.658214 13.526380  8.166384
Ni  8.259269  2.654619  9.941534
Ni 10.087092  0.847414  9.987104
Ni 10.087322  2.649892  8.129110
Ni 11.836055  2.673835  9.957274
Ni 13.623344  0.871113  9.933754
Ni 13.630196  2.679188  8.148350
Ni  8.229904  6.287480 13.603439
Ni 10.021729  4.484070 13.576329
Ni 10.016416  6.294107 11.746857
Ni 11.824133  6.279236 13.595089
Ni 13.646240  4.487935 13.577149
Ni 13.624964  6.284020 11.793143
Ni  8.221170  9.860450 13.588896
Ni 10.026593  8.080600 13.585392
Ni 10.019096  9.862643 11.760366
Ni 11.855418  9.868162 13.573011
Ni 13.658078  8.065461 13.576734
Ni 13.650708  9.853489 11.747858
Ni  8.232515 13.516327 13.553679
Ni 10.052726 11.676789 13.552003
Ni 10.048621 13.497469 11.767357
Ni 11.843089 13.501064 13.567630
Ni 13.671343 11.698252 13.540446
Ni 13.636905 13.474211 11.761170
Ni  8.217391  2.675138 13.561812
Ni 10.036750  0.858992 13.558735
Ni 10.040976  2.674122 11.764098
Ni 11.839586  2.682354 13.577015
Ni 13.636024  0.850391 13.583182
Ni 13.599730  2.711623 11.765982
Ni  1.053409  6.289072  2.721790
Ni  2.806400  4.452097  2.729186
Ni  0.961020  4.496265  0.900488
Ni  4.566004  6.263530  2.770023
Ni  6.373233  4.445012  2.754615
Ni  4.599787  8.040559  0.934891
Ni  4.642278  4.428155  0.927392
Ni  0.999231  8.055353  0.921320
Ni  0.968223  9.905406  2.709270
Ni  4.615291  9.905426  2.669815
Ni  6.373620  8.039059  2.755290
Ni  6.438114  9.913031  0.966188
Ni  2.766136  9.902903  0.897407
Ni  0.936943 13.478432  2.697960
Ni  4.549062 11.749968  0.907556
Ni  2.755763 13.529806  0.851755
Ni  4.563606 13.599469  2.688406
Ni  4.611156 11.752160  4.477720
Ni  6.437042 13.539021  0.907625
Ni  0.971952  2.680180  2.683857
Ni  4.569712  0.909308  0.906142
Ni  0.989142  0.857480  0.840743
Ni  4.581988  2.616551  2.710408
Ni  6.417592  0.832094  2.686482
Ni  6.422271  2.650485  0.957064
Ni  2.786616  0.903536 13.477025
Ni  0.982107  6.249204  6.292382
Ni  2.784338  4.326381  6.333362
Ni  0.976280  4.462197  4.483261
Ni  6.417123  4.343838  6.317011
Ni  6.335759  6.242532  4.600936
Ni  4.606113  4.385704  4.542885
Ni  1.036715  9.938407  6.359081
Ni  2.782625  8.092830  6.277529
Ni  2.807649  9.911727  4.510675
Ni  1.022325  8.085974  4.517169
Ni  4.585668  9.868165  6.327384
Ni  6.426683  8.128614  6.312805
Ni  4.535923  8.029691  4.549619
Ni  0.920624  0.883858  4.477402
Ni  0.976795 11.702600  4.530304
Ni  4.547026 13.589112  6.348735
Ni  6.414625 13.553382  4.526968
Ni  2.746131 13.542186  4.518680
Ni  2.732856  0.919019  6.377449
Ni  2.781132  2.634232  4.470999
Ni  4.611830  2.624887  6.324734
Ni  6.405157  2.553817  4.529417
Ni  0.961306  4.469619  8.113102
Ni  6.444280  4.443636  9.889538
Ni  4.622244  4.437746  8.104789
Ni  1.012150  9.810024  9.968813
Ni  0.984782  8.017942  8.117717
Ni  2.868175  7.888799 10.019909
Ni  6.363068  8.045790  9.889709
Ni  6.434776  9.936695  8.080142
Ni  4.609874  8.070968  8.081867
Ni  0.953454 13.523674  9.974675
Ni  2.775947 11.625684  9.911894
Ni  2.689308 13.483043  8.098726
Ni  4.589466 13.492284  9.922481
Ni  6.421206 11.736262  9.956444
Ni  6.405066 13.510105  8.181162
Ni  4.507326 11.704723  8.161257
Ni  0.939515  2.711049  9.960762
Ni  2.752036  0.832020 10.016919
Ni  0.964562  0.903774  8.201288
Ni  4.643476  2.673724  9.947783
Ni  6.400676  0.845301  9.945830
Ni  6.418934  2.612975  8.148508
Ni  4.553637  0.830734  8.197407
Ni  0.938900  6.274643 13.594642
Ni  2.819195  4.361301 13.554374
Ni  2.769618  4.643437  9.912648
Ni  0.936557  4.484211 11.760770
Ni  4.651281  6.218973 13.576085
Ni  6.441462  4.497035 13.568850
Ni  6.450751  6.260367 11.757575
Ni  4.656985  4.456917 11.747470
Ni  0.978364 11.711110  0.883320
Ni  2.826785  8.084956 13.562293
Ni  2.892718  9.855492 11.711807
Ni  0.998916  8.045964 11.758270
Ni  6.390014  6.256542  0.944817
Ni  6.389638  9.877771 11.797412
Ni  6.408959  8.066538 13.627264
Ni  0.991292 13.508735 13.514543
Ni  2.778278 11.727948 13.542912
Ni  0.986874 11.649199 11.720226
Ni  6.432901 11.702274 13.584322
Ni  6.410624 13.507610 11.731835
Ni  4.635128 11.742678 11.772049
Ni  0.944204  2.676942 13.529224
Ni  4.624579  0.842417 11.724614
Ni  6.440602  0.855981 13.546558
Ni  6.460481  2.665624 11.707473
%ENDBLOCK POSITIONS_ABS

