%block lattice_abc 
  14.46482773 14.46482773 14.46482773 #lattice params 
 90.0  90.0  90.0 
     %endblock lattice_abc 
     fix_all_cell : true 
     %BLOCK POSITIONS_ABS 
Al  8.229779  4.449361  0.927017
 Al 11.848989  4.462161  0.915465
 Al  8.227106  8.096206  0.968382
 Al 11.859688  8.087253  0.928075
 Al  8.311792 11.696831  0.851405
 Al 11.884475 11.687771  0.899305
 Al  8.250362  0.853781  0.919449
 Al 11.861956  0.853226  0.898583
 Al  8.225659  4.430148  4.516654
 Al 11.849695  4.474479  4.515834
 Al  8.288819  8.002060  4.496105
 Al 11.856976  8.074584  4.526800
 Al  8.401441 11.804926  4.538861
 Al 11.876531 11.681192  4.531260
 Al  8.306624  0.823371  4.456883
 Al 11.886011  0.864486  4.511650
 Al  8.177252  4.475073  8.128989
 Al 11.827552  4.489620  8.136513
 Al  8.164225  8.056576  8.129984
 Al 11.821312  8.069662  8.127502
 Al  8.300573 11.706355  8.201764
 Al 11.893947 11.669945  8.149495
 Al  8.351221  0.831669  8.242371
 Al 11.837657  0.854002  8.152469
 Al  8.259254  4.460493 11.782058
 Al 11.807385  4.486166 11.761929
 Al  8.208347  8.080733 11.789014
 Al 11.828003  8.080541 11.762756
 Al  8.233224 11.692696 11.779644
 Al 11.841008 11.667924 11.777985
 Al  8.251136  0.845676 11.754441
 Al 11.878933  0.842826 11.775236
 Al  4.764603  2.654284 13.543985
 Al  0.825157  0.872490 11.743943
 Al  2.803852  2.759093 11.634116
 Al  4.662709 13.541429 13.636151
 Al  2.779529 13.411833 11.672780
 Al  4.608697  9.987677 13.690788
 Al  0.987532  9.873186 13.551088
 Al  2.854049  2.699056  8.264758
 Al  0.866917 11.666259  8.274858
 Al  4.727762  9.973622  9.964282
 Al  2.790944  9.654599  8.156128
 Al  4.930201  6.194209  9.774611
 Al  4.710747  8.026903 11.865856
 Al  2.769033  6.272988  8.037110
 Al  0.819560  6.266264  9.957757
 Al  4.544609  0.851146  4.525757
 Al  6.374069  0.843136  6.444277
 Al  2.639506  0.784392  2.692304
 Al  0.913616  2.674225  6.276038
 Al  6.249732 11.799011  6.381090
 Al  0.892964 13.640323  6.283843
 Al  2.885762 11.700762  6.237209
 Al  6.237781  9.791490  4.486046
 Al  4.889872  6.225433  6.373803
 Al  2.730134  6.152662  4.529241
 Al  2.698210  2.717144  0.880842
 Al  6.288740 11.821951  2.654110
 Al  2.763909 11.712641  2.709946
 Al  2.802545  6.178202  0.823573
 Al  2.759102  6.167914 11.928900
 Al  2.770887  8.196161  2.690909
 Ni  8.215008  6.242659  2.703039
 Ni 10.047299  4.455488  2.721824
 Ni 10.047298  6.276482  0.939378
 Ni 11.862844  6.275995  2.723297
 Ni 13.663004  4.479345  2.701924
 Ni 13.641082  6.289992  0.915051
 Ni  8.176937  9.977092  2.827985
 Ni 10.045456  8.086444  2.728755
 Ni 10.053400  9.881044  0.939217
 Ni 11.869007  9.877988  2.733873
 Ni 13.687661  8.076806  2.727644
 Ni 13.676293  9.884647  0.924832
 Ni  8.251566 13.462070  2.709335
 Ni 10.082939 11.693987  2.706146
 Ni 10.054503 13.507010  0.903361
 Ni 11.871312 13.507489  2.690746
 Ni 13.658569 11.686211  2.718427
 Ni 13.673081 13.494253  0.890255
 Ni  8.229970  2.650749  2.729338
 Ni 10.077183  0.847833  2.700752
 Ni 10.039856  2.656394  0.910180
 Ni 11.856062  2.662565  2.692304
 Ni 13.683510  0.857622  2.684259
 Ni 13.668836  2.662392  0.899460
 Ni  8.163024  6.245787  6.322184
 Ni 10.014569  4.467502  6.331349
 Ni 10.042150  6.249557  4.516895
 Ni 11.824145  6.285199  6.310614
 Ni 13.649727  4.493666  6.317886
 Ni 13.676684  6.276956  4.510162
 Ni  8.170891  9.994886  6.224107
 Ni  9.987636  8.081032  6.329559
 Ni 10.055978  9.887086  4.531381
 Ni 11.851917  9.858864  6.337126
 Ni 13.676494  8.075712  6.322523
 Ni 13.687002  9.881074  4.541548
 Ni  8.240567 13.524382  6.362473
 Ni 10.083408 11.700074  6.355299
 Ni 10.114739 13.532347  4.527756
 Ni 11.892098 13.486203  6.343149
 Ni 13.706055 11.672681  6.340316
 Ni 13.651711 13.506395  4.492175
 Ni  8.245738  2.566551  6.342370
 Ni 10.088605  0.834019  6.335221
 Ni 10.057514  2.651205  4.529051
 Ni 11.849821  2.694444  6.335239
 Ni 13.607556  0.888876  6.355749
 Ni 13.624477  2.672789  4.479527
 Ni  8.166231  6.265129  9.937948
 Ni 10.017278  4.480680  9.939756
 Ni  9.978323  6.276057  8.129564
 Ni 11.839269  6.285356  9.944390
 Ni 13.622586  4.445054  9.947808
 Ni 13.615672  6.271900  8.094506
 Ni  8.203082  9.888778  9.957093
 Ni  9.993352  8.074328  9.939050
 Ni 10.004977  9.873597  8.123145
 Ni 11.816784  9.865944  9.942052
 Ni 13.636362  8.103147  9.947781
 Ni 13.664893  9.838869  8.144176
 Ni  8.259631 13.504348  9.969869
 Ni 10.054198 11.677890  9.971653
 Ni 10.079366 13.486201  8.152099
 Ni 11.855960 13.485570  9.965200
 Ni 13.631604 11.653755 10.004495
 Ni 13.665287 13.521833  8.168599
 Ni  8.268330  2.646747  9.946904
 Ni 10.086997  0.840202  9.988616
 Ni 10.049796  2.671088  8.136896
 Ni 11.825783  2.668415  9.953563
 Ni 13.632226  0.873952  9.925509
 Ni 13.635268  2.678337  8.157177
 Ni  8.239152  6.281793 13.619115
 Ni 10.033518  4.467952 13.590457
 Ni 10.018598  6.288648 11.763629
 Ni 11.818760  6.273224 13.589993
 Ni 13.642804  4.481052 13.571637
 Ni 13.612344  6.282628 11.800884
 Ni  8.228426  9.872025 13.604625
 Ni 10.036948  8.084890 13.597723
 Ni 10.021681  9.868824 11.769627
 Ni 11.859921  9.874451 13.574740
 Ni 13.650937  8.066118 13.573592
 Ni 13.650575  9.853621 11.743206
 Ni  8.241500 13.515998 13.559173
 Ni 10.060154 11.680771 13.564407
 Ni 10.058128 13.495330 11.772588
 Ni 11.847779 13.499240 13.571432
 Ni 13.672896 11.701567 13.541235
 Ni 13.642287 13.470576 11.752660
 Ni  8.227719  2.654777 13.580374
 Ni 10.048720  0.850702 13.568848
 Ni 10.045593  2.659170 11.772375
 Ni 11.846325  2.669037 13.576468
 Ni 13.636774  0.842383 13.582951
 Ni 13.601615  2.704876 11.759516
 Ni  1.013794  6.283494  2.696764
 Ni  2.788286  4.438115  2.705230
 Ni  0.949046  4.490231  0.887631
 Ni  4.553224  6.255423  2.715808
 Ni  6.378386  4.430334  2.726949
 Ni  4.593956  8.041904  0.926139
 Ni  4.635705  4.411740  0.919156
 Ni  0.982390  8.052650  0.914596
 Ni  0.958273  9.901779  2.714971
 Ni  4.607404  9.900483  2.662032
 Ni  6.377621  8.046822  2.718064
 Ni  6.432108  9.921454  0.960375
 Ni  2.752429  9.909453  0.889232
 Ni  0.941318 13.475194  2.717934
 Ni  4.537707 11.753145  0.912280
 Ni  2.748347 13.529097  0.862448
 Ni  4.557141 13.597734  2.698468
 Ni  4.610928 11.738809  4.479912
 Ni  6.433661 13.539152  0.916844
 Ni  0.970858  2.676183  2.692931
 Ni  4.563520  0.903119  0.905722
 Ni  0.987191  0.849926  0.848278
 Ni  4.572158  2.611073  2.710861
 Ni  6.413178  0.827730  2.692314
 Ni  6.421053  2.635084  0.956296
 Ni  2.779403  0.893431 13.475290
 Ni  0.958427  6.244283  6.306221
 Ni  2.824983  4.431099  6.340780
 Ni  0.953707  4.448128  4.491899
 Ni  6.437833  4.334963  6.300008
 Ni  6.406334  6.243714  4.473554
 Ni  4.605751  4.423891  4.518419
 Ni  1.055685  9.905705  6.370126
 Ni  2.824643  7.989357  6.286610
 Ni  2.810794  9.887644  4.522924
 Ni  1.019187  8.081239  4.523694
 Ni  4.585912  9.845307  6.324155
 Ni  6.454467  8.119594  6.298084
 Ni  4.532455  7.999632  4.505503
 Ni  0.928189  0.891589  4.498034
 Ni  0.979061 11.686002  4.545314
 Ni  4.551446 13.584182  6.357158
 Ni  6.406994 13.549317  4.536876
 Ni  2.749531 13.537580  4.534962
 Ni  2.744850  0.924918  6.389760
 Ni  2.783309  2.660455  4.488886
 Ni  4.611379  2.640612  6.322181
 Ni  6.405788  2.557026  4.521379
 Ni  0.967410  4.465306  8.129605
 Ni  6.466364  4.366097  9.979538
 Ni  4.683945  4.446526  8.117865
 Ni  1.023956  9.796390  9.965634
 Ni  0.965033  8.015166  8.130522
 Ni  2.900965  7.870488 10.041209
 Ni  6.391221  8.129646  9.983753
 Ni  6.444239  9.914837  8.095856
 Ni  4.690271  8.051564  8.108427
 Ni  0.958852 13.515849  9.968589
 Ni  2.780502 11.615903  9.906728
 Ni  2.693188 13.475636  8.094658
 Ni  4.591957 13.482655  9.916885
 Ni  6.430679 11.734334  9.963538
 Ni  6.408893 13.505423  8.182682
 Ni  4.514981 11.687472  8.159095
 Ni  0.960233  2.716051  9.962935
 Ni  2.758433  0.830284 10.011062
 Ni  0.978441  0.911703  8.203955
 Ni  4.652193  2.659840  9.966054
 Ni  6.407820  0.839179  9.952359
 Ni  6.425418  2.625421  8.159106
 Ni  4.562876  0.835029  8.200023
 Ni  0.940604  6.274859 13.586277
 Ni  2.820150  4.351807 13.548284
 Ni  2.824310  4.679054  9.933279
 Ni  0.942319  4.480865 11.764480
 Ni  4.649553  6.212089 13.583208
 Ni  6.444719  4.486627 13.577333
 Ni  6.455205  6.255418 11.783096
 Ni  4.671381  4.465759 11.744535
 Ni  0.971542 11.715248  0.891919
 Ni  2.827810  8.084906 13.560280
 Ni  2.892864  9.859490 11.724168
 Ni  1.002866  8.046825 11.762557
 Ni  6.394016  6.249716  0.938054
 Ni  6.393270  9.902899 11.835433
 Ni  6.410846  8.066455 13.637833
 Ni  0.988700 13.507780 13.513940
 Ni  2.766720 11.729641 13.546895
 Ni  0.986979 11.640045 11.713396
 Ni  6.433053 11.716560 13.598847
 Ni  6.418557 13.506765 11.735311
 Ni  4.637333 11.751379 11.779316
 Ni  0.941326  2.666238 13.523738
 Ni  4.630230  0.827111 11.731475
 Ni  6.445865  0.840278 13.558338
 Ni  6.470327  2.632633 11.739927
 %ENDBLOCK POSITIONS_ABS
 
%block positions_abs_product 
     ang 
Al  8.216588  4.465042  0.929407
 Al 11.843115  4.478737  0.912414
 Al  8.214593  8.088997  0.972671
 Al 11.855865  8.084275  0.925106
 Al  8.305719 11.689064  0.840972
 Al 11.878073 11.683863  0.888671
 Al  8.244222  0.864111  0.906570
 Al 11.856924  0.861383  0.885317
 Al  8.216950  4.443406  4.538115
 Al 11.861597  4.477536  4.493956
 Al  8.276494  8.001305  4.521303
 Al 11.872962  8.084181  4.512003
 Al  8.408698 11.813441  4.527461
 Al 11.880882 11.685620  4.514187
 Al  8.312078  0.820270  4.445871
 Al 11.887260  0.867769  4.488912
 Al  8.299663  4.371805  8.101337
 Al 11.846796  4.488510  8.124536
 Al  8.270682  8.172273  8.090303
 Al 11.845579  8.079519  8.119317
 Al  8.302890 11.705940  8.195909
 Al 11.905247 11.682903  8.149734
 Al  8.353470  0.839006  8.236342
 Al 11.854172  0.850244  8.149807
 Al  8.242618  4.484320 11.742346
 Al 11.819320  4.497835 11.767655
 Al  8.195328  8.068846 11.746419
 Al 11.838065  8.075951 11.764269
 Al  8.224006 11.689482 11.770691
 Al 11.842153 11.667925 11.778940
 Al  8.236927  0.852808 11.748392
 Al 11.870644  0.852765 11.781512
 Al  4.769646  2.660756 13.545088
 Al  0.824590  0.876130 11.751636
 Al  2.795225  2.760274 11.632433
 Al  4.671675 13.545080 13.631040
 Al  2.781600 13.419074 11.676746
 Al  4.612743  9.981221 13.689126
 Al  1.001191  9.874728 13.545688
 Al  2.822622  2.659503  8.257750
 Al  0.857958 11.687199  8.275452
 Al  4.736128  9.957309  9.937562
 Al  2.762120  9.708693  8.161105
 Al  4.707997  6.165605  9.923651
 Al  4.702114  8.042236 11.864457
 Al  2.876455  6.254321  7.880042
 Al  0.839986  6.272337  9.918056
 Al  4.549498  0.845759  4.514413
 Al  6.378125  0.834246  6.439844
 Al  2.643632  0.782873  2.676337
 Al  0.892834  2.657197  6.261114
 Al  6.254507 11.816285  6.381039
 Al  0.886911 13.647033  6.274184
 Al  2.880652 11.716164  6.228850
 Al  6.246373  9.812601  4.492096
 Al  6.288941  6.240130  7.842092
 Al  2.844994  6.156486  4.645684
 Al  2.711522  2.732625  0.889178
 Al  6.292785 11.826089  2.649470
 Al  2.766768 11.725402  2.696328
 Al  2.815430  6.181771  0.834427
 Al  2.732824  6.172701 11.933131
 Al  2.793704  8.183061  2.715146
 Ni  8.182012  6.247291  2.744955
 Ni 10.034937  4.464453  2.719498
 Ni 10.024698  6.284308  0.944112
 Ni 11.866935  6.282907  2.715614
 Ni 13.674274  4.488078  2.696050
 Ni 13.658372  6.293146  0.925897
 Ni  8.176445  9.973371  2.828756
 Ni 10.032671  8.088781  2.731138
 Ni 10.041685  9.874199  0.930169
 Ni 11.870462  9.879272  2.720085
 Ni 13.697363  8.081026  2.720578
 Ni 13.681362  9.880208  0.916103
 Ni  8.252978 13.466137  2.696659
 Ni 10.079791 11.696108  2.689455
 Ni 10.045834 13.507186  0.889987
 Ni 11.868854 13.508303  2.670823
 Ni 13.660346 11.687250  2.698867
 Ni 13.671245 13.496729  0.877192
 Ni  8.225300  2.659222  2.732053
 Ni 10.074795  0.853268  2.681622
 Ni 10.027156  2.670700  0.900876
 Ni 11.856189  2.673136  2.678559
 Ni 13.676334  0.860905  2.665254
 Ni 13.667182  2.673013  0.893939
 Ni  8.223488  6.252283  6.349947
 Ni 10.053232  4.463058  6.306441
 Ni 10.052151  6.256733  4.509419
 Ni 11.845350  6.290034  6.290565
 Ni 13.657311  4.499484  6.298206
 Ni 13.687895  6.283126  4.499084
 Ni  8.185116 10.002149  6.205721
 Ni 10.030884  8.093409  6.307090
 Ni 10.063247  9.894840  4.520107
 Ni 11.870021  9.871831  6.323453
 Ni 13.688620  8.081539  6.313759
 Ni 13.690599  9.887649  4.526407
 Ni  8.252162 13.526302  6.357259
 Ni 10.094443 11.708680  6.345583
 Ni 10.120586 13.535497  4.513264
 Ni 11.892993 13.491382  6.330793
 Ni 13.698029 11.687565  6.331235
 Ni 13.644736 13.510175  4.470831
 Ni  8.254735  2.560015  6.320829
 Ni 10.099062  0.836932  6.325386
 Ni 10.061151  2.652843  4.513012
 Ni 11.861559  2.692150  6.312488
 Ni 13.601039  0.885373  6.337771
 Ni 13.630927  2.678884  4.460377
 Ni  8.191665  6.271065  9.837930
 Ni 10.040432  4.484254  9.936948
 Ni 10.040693  6.282272  8.113429
 Ni 11.852162  6.288288  9.941873
 Ni 13.626704  4.453080  9.943003
 Ni 13.624862  6.276400  8.081883
 Ni  8.194441  9.887896  9.945801
 Ni 10.015699  8.082063  9.929839
 Ni 10.048762  9.904963  8.116736
 Ni 11.832745  9.869591  9.943219
 Ni 13.647182  8.101551  9.943185
 Ni 13.672141  9.843582  8.139074
 Ni  8.253920 13.507649  9.960958
 Ni 10.054804 11.677434  9.971705
 Ni 10.084475 13.490826  8.151433
 Ni 11.855099 13.491381  9.971301
 Ni 13.633288 11.663884 10.011396
 Ni 13.658214 13.526380  8.166384
 Ni  8.259269  2.654619  9.941534
 Ni 10.087092  0.847414  9.987104
 Ni 10.087322  2.649892  8.129110
 Ni 11.836055  2.673835  9.957274
 Ni 13.623344  0.871113  9.933754
 Ni 13.630196  2.679188  8.148350
 Ni  8.229904  6.287480 13.603439
 Ni 10.021729  4.484070 13.576329
 Ni 10.016416  6.294107 11.746857
 Ni 11.824133  6.279236 13.595089
 Ni 13.646240  4.487935 13.577149
 Ni 13.624964  6.284020 11.793143
 Ni  8.221170  9.860450 13.588896
 Ni 10.026593  8.080600 13.585392
 Ni 10.019096  9.862643 11.760366
 Ni 11.855418  9.868162 13.573011
 Ni 13.658078  8.065461 13.576734
 Ni 13.650708  9.853489 11.747858
 Ni  8.232515 13.516327 13.553679
 Ni 10.052726 11.676789 13.552003
 Ni 10.048621 13.497469 11.767357
 Ni 11.843089 13.501064 13.567630
 Ni 13.671343 11.698252 13.540446
 Ni 13.636905 13.474211 11.761170
 Ni  8.217391  2.675138 13.561812
 Ni 10.036750  0.858992 13.558735
 Ni 10.040976  2.674122 11.764098
 Ni 11.839586  2.682354 13.577015
 Ni 13.636024  0.850391 13.583182
 Ni 13.599730  2.711623 11.765982
 Ni  1.053409  6.289072  2.721790
 Ni  2.806400  4.452097  2.729186
 Ni  0.961020  4.496265  0.900488
 Ni  4.566004  6.263530  2.770023
 Ni  6.373233  4.445012  2.754615
 Ni  4.599787  8.040559  0.934891
 Ni  4.642278  4.428155  0.927392
 Ni  0.999231  8.055353  0.921320
 Ni  0.968223  9.905406  2.709270
 Ni  4.615291  9.905426  2.669815
 Ni  6.373620  8.039059  2.755290
 Ni  6.438114  9.913031  0.966188
 Ni  2.766136  9.902903  0.897407
 Ni  0.936943 13.478432  2.697960
 Ni  4.549062 11.749968  0.907556
 Ni  2.755763 13.529806  0.851755
 Ni  4.563606 13.599469  2.688406
 Ni  4.611156 11.752160  4.477720
 Ni  6.437042 13.539021  0.907625
 Ni  0.971952  2.680180  2.683857
 Ni  4.569712  0.909308  0.906142
 Ni  0.989142  0.857480  0.840743
 Ni  4.581988  2.616551  2.710408
 Ni  6.417592  0.832094  2.686482
 Ni  6.422271  2.650485  0.957064
 Ni  2.786616  0.903536 13.477025
 Ni  0.982107  6.249204  6.292382
 Ni  2.784338  4.326381  6.333362
 Ni  0.976280  4.462197  4.483261
 Ni  6.417123  4.343838  6.317011
 Ni  6.335759  6.242532  4.600936
 Ni  4.606113  4.385704  4.542885
 Ni  1.036715  9.938407  6.359081
 Ni  2.782625  8.092830  6.277529
 Ni  2.807649  9.911727  4.510675
 Ni  1.022325  8.085974  4.517169
 Ni  4.585668  9.868165  6.327384
 Ni  6.426683  8.128614  6.312805
 Ni  4.535923  8.029691  4.549619
 Ni  0.920624  0.883858  4.477402
 Ni  0.976795 11.702600  4.530304
 Ni  4.547026 13.589112  6.348735
 Ni  6.414625 13.553382  4.526968
 Ni  2.746131 13.542186  4.518680
 Ni  2.732856  0.919019  6.377449
 Ni  2.781132  2.634232  4.470999
 Ni  4.611830  2.624887  6.324734
 Ni  6.405157  2.553817  4.529417
 Ni  0.961306  4.469619  8.113102
 Ni  6.444280  4.443636  9.889538
 Ni  4.622244  4.437746  8.104789
 Ni  1.012150  9.810024  9.968813
 Ni  0.984782  8.017942  8.117717
 Ni  2.868175  7.888799 10.019909
 Ni  6.363068  8.045790  9.889709
 Ni  6.434776  9.936695  8.080142
 Ni  4.609874  8.070968  8.081867
 Ni  0.953454 13.523674  9.974675
 Ni  2.775947 11.625684  9.911894
 Ni  2.689308 13.483043  8.098726
 Ni  4.589466 13.492284  9.922481
 Ni  6.421206 11.736262  9.956444
 Ni  6.405066 13.510105  8.181162
 Ni  4.507326 11.704723  8.161257
 Ni  0.939515  2.711049  9.960762
 Ni  2.752036  0.832020 10.016919
 Ni  0.964562  0.903774  8.201288
 Ni  4.643476  2.673724  9.947783
 Ni  6.400676  0.845301  9.945830
 Ni  6.418934  2.612975  8.148508
 Ni  4.553637  0.830734  8.197407
 Ni  0.938900  6.274643 13.594642
 Ni  2.819195  4.361301 13.554374
 Ni  2.769618  4.643437  9.912648
 Ni  0.936557  4.484211 11.760770
 Ni  4.651281  6.218973 13.576085
 Ni  6.441462  4.497035 13.568850
 Ni  6.450751  6.260367 11.757575
 Ni  4.656985  4.456917 11.747470
 Ni  0.978364 11.711110  0.883320
 Ni  2.826785  8.084956 13.562293
 Ni  2.892718  9.855492 11.711807
 Ni  0.998916  8.045964 11.758270
 Ni  6.390014  6.256542  0.944817
 Ni  6.389638  9.877771 11.797412
 Ni  6.408959  8.066538 13.627264
 Ni  0.991292 13.508735 13.514543
 Ni  2.778278 11.727948 13.542912
 Ni  0.986874 11.649199 11.720226
 Ni  6.432901 11.702274 13.584322
 Ni  6.410624 13.507610 11.731835
 Ni  4.635128 11.742678 11.772049
 Ni  0.944204  2.676942 13.529224
 Ni  4.624579  0.842417 11.724614
 Ni  6.440602  0.855981 13.546558
 Ni  6.460481  2.665624 11.707473
%endblock positions_abs_product 
%block positions_abs_intermediate 
     ang 
Al  8.223184  4.457202  0.928212
 Al 11.846052  4.470449  0.913939
 Al  8.220849  8.092602  0.970526
 Al 11.857777  8.085764  0.926591
 Al  8.308755 11.692948  0.846189
 Al 11.881274 11.685817  0.893988
 Al  8.247292  0.858946  0.913009
 Al 11.859440  0.857305  0.891950
 Al  8.221304  4.436777  4.527385
 Al 11.855646  4.476007  4.504895
 Al  8.282657  8.001683  4.508704
 Al 11.864969  8.079383  4.519402
 Al  8.405069 11.809184  4.533161
 Al 11.878706 11.683406  4.522724
 Al  8.309351  0.821820  4.451377
 Al 11.886636  0.866127  4.500281
 Al  8.238458  4.423439  8.115163
 Al 11.837174  4.489065  8.130524
 Al  8.217454  8.114425  8.110144
 Al 11.833446  8.074591  8.123409
 Al  8.301732 11.706148  8.198837
 Al 11.899597 11.676424  8.149615
 Al  8.352346  0.835338  8.239357
 Al 11.845914  0.852123  8.151138
 Al  8.250936  4.472406 11.762202
 Al 11.813353  4.492001 11.764792
 Al  8.201837  8.074789 11.767717
 Al 11.833034  8.078246 11.763512
 Al  8.228615 11.691089 11.775168
 Al 11.841580 11.667925 11.778463
 Al  8.244032  0.849242 11.751417
 Al 11.874789  0.847796 11.778374
 Al  4.767125  2.657520 13.544536
 Al  0.824873  0.874310 11.747789
 Al  2.799538  2.759684 11.633275
 Al  4.667192 13.543255 13.633596
 Al  2.780565 13.415453 11.674763
 Al  4.610720  9.984449 13.689957
 Al  0.994362  9.873957 13.548388
 Al  2.838336  2.679280  8.261254
 Al  0.862437 11.676729  8.275155
 Al  4.731945  9.965466  9.950922
 Al  2.776532  9.681646  8.158617
 Al  4.819099  6.179907  9.849131
 Al  4.706430  8.034569 11.865156
 Al  2.822744  6.263655  7.958576
 Al  0.829773  6.269300  9.937907
 Al  4.547054  0.848452  4.520085
 Al  6.376097  0.838691  6.442060
 Al  2.641569  0.783633  2.684320
 Al  0.903225  2.665711  6.268576
 Al  6.252120 11.807648  6.381065
 Al  0.889937 13.643678  6.279014
 Al  2.883207 11.708463  6.233030
 Al  6.242077  9.802045  4.489071
 Al  5.589406  6.232781  7.107948
 Al  2.787564  6.154574  4.587463
 Al  2.704866  2.724885  0.885010
 Al  6.290763 11.824020  2.651790
 Al  2.765339 11.719021  2.703137
 Al  2.808987  6.179986  0.829000
 Al  2.745963  6.170308 11.931016
 Al  2.782295  8.189611  2.703027
 Ni  8.198510  6.244975  2.723997
 Ni 10.041118  4.459970  2.720661
 Ni 10.035998  6.280395  0.941745
 Ni 11.864889  6.279451  2.719456
 Ni 13.668639  4.483711  2.698987
 Ni 13.649727  6.291569  0.920474
 Ni  8.176691  9.975231  2.828371
 Ni 10.039063  8.087613  2.729947
 Ni 10.047542  9.877622  0.934693
 Ni 11.869735  9.878630  2.726979
 Ni 13.692512  8.078916  2.724111
 Ni 13.678828  9.882428  0.920467
 Ni  8.252272 13.464103  2.702997
 Ni 10.081365 11.695048  2.697801
 Ni 10.050169 13.507098  0.896674
 Ni 11.870083 13.507896  2.680785
 Ni 13.659457 11.686731  2.708647
 Ni 13.672163 13.495491  0.883724
 Ni  8.227635  2.654986  2.730695
 Ni 10.075989  0.850550  2.691187
 Ni 10.033506  2.663547  0.905528
 Ni 11.856126  2.667851  2.685431
 Ni 13.679922  0.859264  2.674756
 Ni 13.668009  2.667702  0.896700
 Ni  8.193256  6.249035  6.336065
 Ni 10.033900  4.465280  6.318895
 Ni 10.047151  6.253145  4.513157
 Ni 11.834747  6.287617  6.300589
 Ni 13.653519  4.496575  6.308046
 Ni 13.682290  6.280041  4.504623
 Ni  8.178003  9.998518  6.214914
 Ni 10.009260  8.087221  6.318324
 Ni 10.059613  9.890963  4.525744
 Ni 11.860969  9.865348  6.330290
 Ni 13.682557  8.078625  6.318141
 Ni 13.688800  9.884362  4.533977
 Ni  8.246364 13.525342  6.359866
 Ni 10.088926 11.704377  6.350441
 Ni 10.117663 13.533922  4.520510
 Ni 11.892546 13.488793  6.336971
 Ni 13.702042 11.680123  6.335775
 Ni 13.648223 13.508285  4.481503
 Ni  8.250237  2.563283  6.331599
 Ni 10.093833  0.835476  6.330304
 Ni 10.059332  2.652024  4.521031
 Ni 11.855690  2.693297  6.323863
 Ni 13.604298  0.887125  6.346760
 Ni 13.627702  2.675836  4.469952
 Ni  8.178948  6.268097  9.887939
 Ni 10.028855  4.482467  9.938352
 Ni 10.009508  6.279164  8.121497
 Ni 11.845715  6.286822  9.943132
 Ni 13.624645  4.449067  9.945405
 Ni 13.620267  6.274150  8.088194
 Ni  8.198762  9.888337  9.951447
 Ni 10.004525  8.078196  9.934445
 Ni 10.026870  9.889280  8.119940
 Ni 11.824765  9.867767  9.942635
 Ni 13.641772  8.102349  9.945483
 Ni 13.668517  9.841226  8.141625
 Ni  8.256775 13.505998  9.965413
 Ni 10.054501 11.677662  9.971679
 Ni 10.081921 13.488514  8.151766
 Ni 11.855529 13.488475  9.968251
 Ni 13.632446 11.658820 10.007945
 Ni 13.661751 13.524106  8.167492
 Ni  8.263800  2.650683  9.944219
 Ni 10.087045  0.843808  9.987860
 Ni 10.068559  2.660490  8.133003
 Ni 11.830919  2.671125  9.955419
 Ni 13.627785  0.872533  9.929631
 Ni 13.632732  2.678763  8.152764
 Ni  8.234528  6.284636 13.611277
 Ni 10.027623  4.476011 13.583393
 Ni 10.017507  6.291377 11.755243
 Ni 11.821446  6.276230 13.592541
 Ni 13.644522  4.484493 13.574393
 Ni 13.618654  6.283324 11.797014
 Ni  8.224798  9.866238 13.596760
 Ni 10.031770  8.082745 13.591558
 Ni 10.020388  9.865733 11.764996
 Ni 11.857670  9.871307 13.573876
 Ni 13.654508  8.065789 13.575163
 Ni 13.650642  9.853555 11.745532
 Ni  8.237007 13.516163 13.556426
 Ni 10.056440 11.678780 13.558205
 Ni 10.053375 13.496400 11.769972
 Ni 11.845434 13.500152 13.569531
 Ni 13.672119 11.699909 13.540840
 Ni 13.639596 13.472394 11.756915
 Ni  8.222555  2.664958 13.571093
 Ni 10.042735  0.854847 13.563792
 Ni 10.043284  2.666646 11.768237
 Ni 11.842955  2.675695 13.576741
 Ni 13.636399  0.846387 13.583067
 Ni 13.600673  2.708250 11.762749
 Ni  1.033601  6.286283  2.709277
 Ni  2.797343  4.445106  2.717208
 Ni  0.955033  4.493248  0.894059
 Ni  4.559614  6.259477  2.742915
 Ni  6.375810  4.437673  2.740782
 Ni  4.596872  8.041232  0.930515
 Ni  4.638992  4.419948  0.923274
 Ni  0.990811  8.054002  0.917958
 Ni  0.963248  9.903593  2.712121
 Ni  4.611347  9.902954  2.665923
 Ni  6.375621  8.042940  2.736677
 Ni  6.435111  9.917243  0.963282
 Ni  2.759282  9.906178  0.893320
 Ni  0.939130 13.476813  2.707947
 Ni  4.543384 11.751556  0.909918
 Ni  2.752055 13.529452  0.857101
 Ni  4.560374 13.598601  2.693437
 Ni  4.611042 11.745485  4.478816
 Ni  6.435352 13.539087  0.912235
 Ni  0.971405  2.678182  2.688394
 Ni  4.566616  0.906213  0.905932
 Ni  0.988166  0.853703  0.844510
 Ni  4.577073  2.613812  2.710635
 Ni  6.415385  0.829912  2.689398
 Ni  6.421662  2.642785  0.956680
 Ni  2.783009  0.898483 13.476157
 Ni  0.970267  6.246744  6.299301
 Ni  2.804661  4.378740  6.337071
 Ni  0.964994  4.455162  4.487580
 Ni  6.427478  4.339401  6.308509
 Ni  6.371047  6.243123  4.537245
 Ni  4.605932  4.404798  4.530652
 Ni  1.046200  9.922056  6.364603
 Ni  2.803634  8.041094  6.282069
 Ni  2.809221  9.899685  4.516800
 Ni  1.020756  8.083607  4.520431
 Ni  4.585790  9.856736  6.325770
 Ni  6.440575  8.124104  6.305444
 Ni  4.534189  8.014662  4.527561
 Ni  0.924407  0.887724  4.487718
 Ni  0.977928 11.694301  4.537809
 Ni  4.549236 13.586647  6.352947
 Ni  6.410809 13.551350  4.531922
 Ni  2.747831 13.539883  4.526821
 Ni  2.738853  0.921969  6.383604
 Ni  2.782221  2.647343  4.479943
 Ni  4.611604  2.632749  6.323457
 Ni  6.405473  2.555421  4.525398
 Ni  0.964358  4.467462  8.121353
 Ni  6.455322  4.404867  9.934538
 Ni  4.653094  4.442136  8.111327
 Ni  1.018053  9.803207  9.967224
 Ni  0.974907  8.016554  8.124119
 Ni  2.884570  7.879644 10.030559
 Ni  6.377145  8.087718  9.936731
 Ni  6.439508  9.925766  8.087999
 Ni  4.650072  8.061266  8.095147
 Ni  0.956153 13.519762  9.971632
 Ni  2.778225 11.620793  9.909311
 Ni  2.691248 13.479339  8.096692
 Ni  4.590712 13.487470  9.919683
 Ni  6.425943 11.735298  9.959991
 Ni  6.406979 13.507764  8.181922
 Ni  4.511153 11.696097  8.160176
 Ni  0.949874  2.713550  9.961848
 Ni  2.755235  0.831152 10.013991
 Ni  0.971501  0.907739  8.202621
 Ni  4.647835  2.666782  9.956918
 Ni  6.404248  0.842240  9.949095
 Ni  6.422176  2.619198  8.153807
 Ni  4.558257  0.832881  8.198715
 Ni  0.939752  6.274751 13.590460
 Ni  2.819672  4.356554 13.551329
 Ni  2.796964  4.661246  9.922964
 Ni  0.939438  4.482538 11.762625
 Ni  4.650417  6.215531 13.579646
 Ni  6.443091  4.491831 13.573092
 Ni  6.452978  6.257893 11.770335
 Ni  4.664183  4.461338 11.746003
 Ni  0.974953 11.713179  0.887620
 Ni  2.827297  8.084931 13.561287
 Ni  2.892791  9.857491 11.717987
 Ni  1.000891  8.046394 11.760414
 Ni  6.392015  6.253129  0.941436
 Ni  6.391454  9.890335 11.816422
 Ni  6.409903  8.066497 13.632548
 Ni  0.989996 13.508258 13.514242
 Ni  2.772499 11.728795 13.544903
 Ni  0.986926 11.644622 11.716811
 Ni  6.432977 11.709417 13.591584
 Ni  6.414591 13.507187 11.733573
 Ni  4.636231 11.747029 11.775682
 Ni  0.942765  2.671590 13.526481
 Ni  4.627405  0.834764 11.728044
 Ni  6.443233  0.848129 13.552448
 Ni  6.465404  2.649129 11.723700
%endblock positions_abs_intermediate 
     kpoint_mp_grid 1 1 1 
     fix_com : false