#######################################################
#CASTEP cell file: /home/u2093113/Documents/kART/barriers/CASTEP/castep.cell
#Created using the Atomic Simulation Environment (ASE)#
#######################################################

%BLOCK LATTICE_CART
14.464828  0.000000  0.000000
 0.000000 14.464828  0.000000
 0.000000  0.000000 14.464828
%ENDBLOCK LATTICE_CART

%BLOCK POSITIONS_ABS
Ni  8.210567  6.235856  2.709244
Ni 10.047492  4.452469  2.720273
Ni 10.042607  6.265741  0.923045
Al  8.256491  4.445409  0.928608
Ni 11.843015  6.270723  2.718635
Ni 13.641725  4.469681  2.720063
Ni 13.641674  6.277442  0.909938
Al 11.847520  4.465899  0.910871
Ni  8.173770  9.953746  2.741770
Ni 10.040498  8.085104  2.705842
Ni 10.040701  9.887182  0.921863
Al  8.247796  8.086285  0.946724
Ni 11.846107  9.886892  2.720762
Ni 13.636331  8.081906  2.719754
Ni 13.641182  9.885207  0.908771
Al 11.840797  8.079128  0.913043
Ni  8.236764 13.491534  2.691634
Ni 10.064658 11.703178  2.708125
Ni 10.075079 13.518224  0.895393
Al  8.326877 11.719347  0.860844
Ni 11.860449 13.505345  2.714717
Ni 13.639334 11.691857  2.718374
Ni 13.645812 13.500696  0.904406
Al 11.850718 11.692306  0.903730
Ni  8.230051  2.649064  2.714481
Ni 10.068436  0.845968  2.707000
Ni 10.054546  2.653732  0.908489
Al  8.280946  0.849194  0.915625
Ni 11.853198  2.658052  2.718664
Ni 13.644596  0.848625  2.718371
Ni 13.647473  2.662859  0.907614
Al 11.861076  0.854361  0.901556
Ni  6.444834  6.251111  8.112769
Ni 10.018586  4.462411  6.323267
Ni 10.043471  6.250278  4.518106
Al  8.231655  4.444306  4.516329
Ni 11.829042  6.276607  6.333854
Ni 13.637481  4.473719  6.339769
Ni 13.633223  6.278549  4.529722
Al 11.844036  4.462980  4.530184
Ni  8.088480  9.854277  6.257253
Ni 10.009269  8.085751  6.320993
Ni 10.028949  9.885794  4.523209
Al  8.301195  8.022766  4.452614
Ni 11.833994  9.880272  6.334983
Ni 13.632747  8.081827  6.337599
Ni 13.637851  9.885600  4.529999
Al 11.831305  8.079130  4.525364
Ni  8.214180 13.518349  6.367758
Ni 10.023090 11.679458  6.346198
Ni 10.076688 13.517362  4.531729
Al  8.342816 11.757306  4.530633
Ni 11.849116 13.495197  6.345863
Ni 13.638689 11.687611  6.341895
Ni 13.639026 13.499218  4.531881
Al 11.843396 11.690657  4.534047
Ni  8.217292  2.612995  6.337268
Ni 10.046875  0.842269  6.344779
Ni 10.049377  2.655120  4.527838
Al  8.305483  0.838091  4.477825
Ni 11.845000  2.661459  6.337346
Ni 13.641986  0.846603  6.343238
Ni 13.642340  2.659458  4.531020
Al 11.853645  0.851479  4.532854
Ni  8.219620  6.270830  9.953398
Ni 10.036818  4.477771  9.954223
Ni 10.021794  6.273003  8.132394
Al  8.266789  4.455131  8.119232
Ni 11.829254  6.280275  9.953037
Ni 13.640355  4.479586  9.951234
Ni 13.633307  6.282780  8.145021
Al 11.833233  4.478249  8.140987
Ni  8.204849  9.881937  9.978756
Ni 10.022672  8.076972  9.964349
Ni 10.013657  9.872774  8.130108
Al  8.268021  8.083129  8.164210
Ni 11.832701  9.872819  9.951870
Ni 13.634158  8.080366  9.951587
Ni 13.635136  9.879933  8.146341
Al 11.820655  8.078416  8.140557
Ni  8.250984 13.488272  9.977350
Ni 10.050855 11.676246  9.971888
Ni 10.069779 13.489663  8.159632
Al  8.300570 11.677496  8.179001
Ni 11.857832 13.491388  9.959158
Ni 13.642105 11.683032  9.951632
Ni 13.641203 13.495744  8.149401
Al 11.836165 11.676425  8.148048
Ni  8.261842  2.660536  9.962566
Ni 10.085971  0.847836  9.975670
Ni 10.063151  2.668786  8.145098
Al  8.347663  0.843844  8.226269
Ni 11.851238  2.673514  9.957033
Ni 13.643848  0.849513  9.951664
Ni 13.638068  2.664692  8.146575
Al 11.849185  0.849201  8.149717
Ni  8.223045  6.272592 13.615047
Ni 10.039267  4.464317 13.582008
Ni 10.022971  6.279598 11.775297
Al  8.276308  4.465677 11.780668
Ni 11.837386  6.276202 13.572714
Ni 13.645274  4.475228 13.564007
Ni 13.638813  6.280541 11.758788
Al 11.836399  4.479578 11.763753
Ni  8.222675  9.897647 13.586379
Ni 10.028385  8.079218 13.589385
Ni 10.034141  9.874748 11.771747
Al  8.238278  8.080381 11.795201
Ni 11.842453  9.877170 13.570193
Ni 13.641678  8.080090 13.567309
Ni 13.640458  9.878700 11.758453
Al 11.831180  8.075280 11.766426
Ni  8.242503 13.520687 13.549818
Ni 10.066148 11.694823 13.554019
Ni 10.065937 13.498061 11.763493
Al  8.255142 11.692025 11.774805
Ni 11.861781 13.505577 13.559108
Ni 13.643321 11.688192 13.563467
Ni 13.651145 13.498304 11.756514
Al 11.852181 11.680863 11.759810
Ni  8.231607  2.638972 13.571401
Ni 10.059569  0.853289 13.559095
Ni 10.056196  2.665983 11.769147
Al  8.284331  0.845237 11.746167
Ni 11.854843  2.665535 13.565764
Ni 13.653607  0.851169 13.561072
Ni 13.648251  2.669034 11.756771
Al 11.861910  0.853816 11.763112
Ni  1.053332  6.231779  2.688561
Ni  2.771589  4.422207  2.684040
Al  4.750971  2.634832 13.513920
Ni  0.933457  4.421639  0.860965
Ni  4.501152  6.244852  2.667410
Ni  6.398922  4.429912  2.724345
Ni  4.576686  8.069134  0.894265
Ni  4.624830  4.395512  0.891944
Al  0.811221  0.841261 11.678918
Ni  0.948468  8.107788  0.824959
Ni  0.946970  9.950157  2.699545
Al  2.786294  2.753421 11.635803
Ni  4.541897  9.923221  2.627260
Ni  6.391431  8.069476  2.688484
Ni  6.429383  9.938917  0.949939
Ni  2.739330  9.938916  0.876212
Ni  0.950232 13.521539  2.684529
Ni  4.575303 11.777127  0.891890
Ni  2.744647 13.557148  0.829428
Al  4.653233 13.542371 13.580281
Ni  4.540921 13.592652  2.673095
Ni  4.604522 11.746306  4.468583
Ni  6.440225 13.551614  0.892715
Al  2.788208 13.453320 11.639324
Ni  0.946121  2.616583  2.668927
Ni  4.567657  0.897950  0.860377
Ni  0.961395  0.850243  0.808368
Ni  4.553256  2.596638  2.687294
Ni  6.418282  0.829079  2.718220
Ni  6.440206  2.630413  0.921899
Ni  2.789966  0.891503 13.423197
Ni  0.972296  6.236020  6.327182
Ni  2.804864  4.388660  6.336269
Al  4.603776  9.985080 13.662395
Ni  0.934228  4.401722  4.515804
Al  1.075889  9.946398 13.440210
Ni  6.430970  4.465507  6.300657
Ni  6.350769  6.260280  4.492657
Ni  4.619215  4.418067  4.514845
Ni  1.050153  9.899972  6.364464
Ni  2.842226  8.034782  6.268644
Ni  2.777397  9.909369  4.483608
Ni  0.989584  8.072770  4.511196
Ni  4.592464  9.852154  6.324676
Ni  8.186385  6.294961  6.304982
Al  2.869942  2.714632  8.276057
Ni  4.527950  8.024967  4.432689
Ni  0.962176  0.869280  4.533529
Al  0.974310 11.662727  8.180706
Ni  1.017558 11.784053  4.578421
Ni  4.565947 13.568469  6.364846
Ni  6.429181 13.542457  4.543523
Ni  2.771642 13.569556  4.532118
Al  4.713538  9.917120  9.984598
Al  2.808313  9.684156  8.156724
Ni  2.822300  0.928314  6.383163
Ni  2.760696  2.640412  4.494540
Ni  4.615230  2.643366  6.355232
Ni  6.422166  2.599504  4.532597
Al  4.777401  6.179186  9.933078
Al  4.739546  8.034968 11.872755
Al  2.871566  6.246370  7.944761
Al  0.951461  6.293093  9.913007
Ni  0.951617  4.475704  8.147991
Ni  6.510279  4.439461  9.942663
Ni  4.672098  4.483762  8.101008
Al  4.603631  0.875273  4.514104
Al  6.378333  0.830102  6.437995
Al  2.689051  0.790051  2.678963
Ni  0.971236  9.816984  9.956582
Al  0.976745  2.655225  6.383327
Ni  0.964302  8.038903  8.142897
Ni  2.875319  7.924366 10.007215
Ni  6.449484  8.077086  9.971285
Ni  6.425576  9.866010  8.106956
Ni  4.634121  8.024379  8.195488
Al  6.270671 11.768033  6.357977
Ni  0.941563 13.481303  9.927444
Ni  2.798265 11.617881  9.904875
Ni  2.779288 13.499487  8.174393
Al  1.028528 13.674777  6.393901
Ni  4.611482 13.479581  9.957327
Ni  6.453072 11.698209  9.928349
Ni  6.431370 13.500077  8.172266
Ni  4.578580 11.656508  8.156374
Al  2.924581 11.699815  6.245442
Ni  0.945934  2.696429  9.922119
Ni  2.771570  0.859837  9.992957
Al  6.249579  9.829526  4.425407
Ni  0.988050  0.896611  8.188301
Ni  4.645325  2.704728  9.974366
Ni  6.461887  0.843154  9.933162
Ni  6.448449  2.650604  8.154286
Ni  4.610411  0.867798  8.212926
Ni  0.954139  6.237025 13.527333
Ni  2.810857  4.373478 13.529654
Ni  2.813020  4.597939  9.920490
Ni  0.921883  4.471137 11.685339
Ni  4.628991  6.236980 13.586972
Ni  6.476932  4.446989 13.590843
Ni  6.472921  6.254685 11.798374
Ni  4.680264  4.468887 11.764846
Al  6.174599  7.913487  6.324515
Ni  0.967589 11.737489  0.837362
Ni  2.801666  8.078696 13.564252
Ni  2.884484  9.843423 11.725795
Ni  0.959144  8.055190 11.740698
Al  2.796754  6.151550  4.589879
Ni  6.396746  6.242300  0.944428
Ni  6.419163  9.900271 11.813701
Ni  6.441056  8.098929 13.656534
Al  2.702710  2.692599  0.835377
Ni  0.982817 13.495353 13.451147
Ni  2.813877 11.746198 13.512618
Al  6.284751 11.834915  2.659659
Ni  0.962314 11.679020 11.683674
Al  2.769218 11.758301  2.701823
Ni  6.441010 11.730952 13.604036
Ni  6.439481 13.511955 11.749335
Ni  4.650558 11.714264 11.767324
Al  2.764907  6.159901  0.802433
Al  2.777930  6.175601 11.891453
Ni  0.956380  2.651932 13.457587
Al  2.725683  8.176249  2.663220
Ni  4.637854  0.846166 11.723644
Ni  6.461237  0.838395 13.555972
Ni  6.470764  2.644343 11.738416
%ENDBLOCK POSITIONS_ABS

FIX_ALL_CELL: TRUE
KPOINT_MP_GRID: 1 1 1
