#######################################################
#CASTEP cell file: /home/eng/phrbwm/kART/checks/AB-NEB/CASTEP/castep.cell
#Created using the Atomic Simulation Environment (ASE)#
#######################################################

%BLOCK LATTICE_CART
14.391200  0.000000  0.000000
 0.000000 14.391200  0.000000
 0.000000  0.000000 14.391200
%ENDBLOCK LATTICE_CART

%BLOCK POSITIONS_ABS
Ni  0.899450  2.698350  2.698350
Al 13.491750 13.491750 11.692850
Ni  2.698350  2.698350  0.899450
Ni  0.899450  0.899450  0.899450
Al 13.491750 11.692850 13.491750
Ni  6.296150  0.899450  2.698350
Ni  6.296150  2.698350  0.899450
Ni  4.497250  0.899450  0.899450
Ni  8.095050  2.698350  2.698350
Ni  9.893950  0.899450  2.698350
Al  9.893950 11.692850 13.491750
Ni  8.095050  0.899450  0.899450
Ni 11.692850  2.698350  2.698350
Ni 13.491750  0.899450  2.698350
Ni 13.491750  2.698350  0.899450
Ni 11.692850  0.899450  0.899450
Ni  0.899450  6.296150  2.698350
Ni  2.698350  4.497250  2.698350
Ni  2.698350  6.296150  0.899450
Al  9.893950  9.893950 11.692850
Ni  4.497250  6.296150  2.698350
Ni  6.296150  4.497250  2.698350
Al  9.893950  8.095050 13.491750
Al  8.095050  9.893950 13.491750
Ni  8.095050  6.296150  2.698350
Ni  9.893950  4.497250  2.698350
Al  4.497250  8.095050 11.692850
Ni  8.095050  4.497250  0.899450
Al  6.296150  9.893950 11.692850
Ni 13.491750  4.497250  2.698350
Al  4.497250  6.296150 13.491750
Ni 11.692850  4.497250  0.899450
Al  2.698350  4.497250 13.491750
Ni  2.698350  8.095050  2.698350
Ni  2.698350  9.893950  0.899450
Ni  0.899450  8.095050  0.899450
Al 11.692850  0.899450 11.692850
Ni  6.296150  8.095050  2.698350
Ni  6.296150  9.893950  0.899450
Al 11.692850  2.698350 13.491750
Ni  8.095050  9.893950  2.698350
Ni  9.893950  8.095050  2.698350
Ni  9.893950  9.893950  0.899450
Ni  8.095050  8.095050  0.899450
Ni 11.692850  9.893950  2.698350
Al  9.893950  2.698350 11.692850
Ni 13.491750  9.893950  0.899450
Al  4.497250  0.899450 11.692850
Ni  0.899450 13.491750  2.698350
Ni  2.698350 11.692850  2.698350
Ni  2.698350 13.491750  0.899450
Al  4.497250  2.698350 13.491750
Ni  4.497250 13.491750  2.698350
Ni  6.296150 11.692850  2.698350
Ni  6.296150 13.491750  0.899450
Ni  4.497250 11.692850  0.899450
Ni  8.095050 13.491750  2.698350
Ni  9.893950 11.692850  2.698350
Ni  9.893950 13.491750  0.899450
Al  0.899450  0.899450 11.692850
Ni 11.692850 13.491750  2.698350
Ni 13.491750 11.692850  2.698350
Ni 13.491750 13.491750  0.899450
Ni 11.692850 11.692850  0.899450
Al  2.698350  2.698350 11.692850
Ni  2.698350  0.899450  6.296150
Ni  2.698350  2.698350  4.497250
Ni  0.899450  0.899450  4.497250
Ni  4.497250  2.698350  6.296150
Al  2.698350  0.899450 13.491750
Ni  6.296150  2.698350  4.497250
Ni  4.497250  0.899450  4.497250
Ni  8.095050  2.698350  6.296150
Al 11.692850 11.692850  8.095050
Al  8.095050 11.692850  8.095050
Ni  8.095050  0.899450  4.497250
Ni 11.692850  2.698350  6.296150
Ni 13.491750  0.899450  6.296150
Ni 13.491750  2.698350  4.497250
Ni 11.692850  0.899450  4.497250
Ni  0.899450  6.296150  6.296150
Al  6.296150 11.692850  9.893950
Ni  2.698350  6.296150  4.497250
Ni  0.899450  4.497250  4.497250
Al  4.497250 13.491750  9.893950
Ni  6.296150  4.497250  6.296150
Ni  6.296150  6.296150  4.497250
Ni  4.497250  4.497250  4.497250
Ni  8.095050  6.296150  6.296150
Ni  9.893950  4.497250  6.296150
Ni  9.893950  6.296150  4.497250
Ni  8.095050  4.497250  4.497250
Ni 11.692850  6.296150  6.296150
Ni 13.491750  4.497250  6.296150
Ni 13.491750  6.296150  4.497250
Ni 11.692850  4.497250  4.497250
Ni  0.899450  9.893950  6.296150
Al 11.692850  9.893950  9.893950
Al  6.296150  8.095050  9.893950
Al  2.698350  9.893950  8.095050
Ni  4.497250  9.893950  6.296150
Ni  6.296150  8.095050  6.296150
Ni  6.296150  9.893950  4.497250
Ni  4.497250  8.095050  4.497250
Ni  8.095050  9.893950  6.296150
Al  9.893950  6.296150  8.095050
Ni  9.893950  9.893950  4.497250
Ni  8.095050  8.095050  4.497250
Al  8.095050  6.296150  9.893950
Al  0.899450  4.497250  8.095050
Al  2.698350  2.698350  8.095050
Ni 11.692850  8.095050  4.497250
Al  9.893950 11.692850  6.296150
Al  8.095050 13.491750  6.296150
Ni  2.698350 13.491750  4.497250
Al  4.497250 13.491750  6.296150
Al  0.899450 11.692850  4.497250
Ni  6.296150 11.692850  6.296150
Ni  6.296150 13.491750  4.497250
Ni  4.497250 11.692850  4.497250
Al  2.698350 11.692850  6.296150
Al  0.899450 13.491750  6.296150
Ni  9.893950 13.491750  4.497250
Ni  8.095050 11.692850  4.497250
Ni 11.692850 13.491750  6.296150
Ni 13.491750 11.692850  6.296150
Ni 13.491750 13.491750  4.497250
Ni 11.692850 11.692850  4.497250
Ni  0.899450  2.698350  9.893950
Ni  2.698350  0.899450  9.893950
Al 13.491750  9.893950  4.497250
Ni  0.899450  0.899450  8.095050
Ni  4.497250  2.698350  9.893950
Ni  6.296150  0.899450  9.893950
Ni  6.296150  2.698350  8.095050
Ni  4.497250  0.899450  8.095050
Ni  8.095050  2.698350  9.893950
Ni  9.893950  0.899450  9.893950
Ni  9.893950  2.698350  8.095050
Ni  8.095050  0.899450  8.095050
Ni 11.692850  2.698350  9.893950
Ni 13.491750  0.899450  9.893950
Ni 13.491750  2.698350  8.095050
Ni 11.692850  0.899450  8.095050
Ni  0.899450  6.296150  9.893950
Ni  2.698350  4.497250  9.893950
Ni  2.698350  6.296150  8.095050
Al 13.491750  8.095050  6.296150
Ni  4.497250  6.296150  9.893950
Ni  6.296150  4.497250  9.893950
Ni  6.296150  6.296150  8.095050
Ni  4.497250  4.497250  8.095050
Al 11.692850  9.893950  6.296150
Ni  9.893950  4.497250  9.893950
Al  9.893950  8.095050  6.296150
Ni  8.095050  4.497250  8.095050
Ni 11.692850  6.296150  9.893950
Ni 13.491750  4.497250  9.893950
Ni 13.491750  6.296150  8.095050
Ni 11.692850  4.497250  8.095050
Ni  0.899450  9.893950  9.893950
Ni  2.698350  8.095050  9.893950
Al  0.899450  8.095050  4.497250
Ni  0.899450  8.095050  8.095050
Ni  4.497250  9.893950  9.893950
Al  2.698350  9.893950  4.497250
Ni  6.296150  9.893950  8.095050
Ni  4.497250  8.095050  8.095050
Ni  8.095050  9.893950  9.893950
Ni  9.893950  8.095050  9.893950
Ni  9.893950  9.893950  8.095050
Ni  8.095050  8.095050  8.095050
Al  2.698350  8.095050  6.296150
Ni 13.491750  8.095050  9.893950
Ni 13.491750  9.893950  8.095050
Ni 11.692850  8.095050  8.095050
Ni  0.899450 13.491750  9.893950
Ni  2.698350 11.692850  9.893950
Ni  2.698350 13.491750  8.095050
Ni  0.899450 11.692850  8.095050
Al  4.497250  6.296150  6.296150
Al  2.698350  4.497250  6.296150
Ni  6.296150 13.491750  8.095050
Ni  4.497250 11.692850  8.095050
Ni  8.095050 13.491750  9.893950
Ni  9.893950 11.692850  9.893950
Ni  9.893950 13.491750  8.095050
Al  9.893950  2.698350  4.497250
Ni 11.692850 13.491750  9.893950
Ni 13.491750 11.692850  9.893950
Ni 13.491750 13.491750  8.095050
Al  9.893950  0.899450  6.296150
Ni  0.899450  2.698350 13.491750
Al  6.296150  0.899450  6.296150
Al  0.899450  2.698350  6.296150
Al  8.095050 11.692850  0.899450
Al  0.899450 11.692850  0.899450
Ni  6.296150  0.899450 13.491750
Ni  6.296150  2.698350 11.692850
Al 11.692850  8.095050  0.899450
Ni  8.095050  2.698350 13.491750
Ni  9.893950  0.899450 13.491750
Al 13.491750  8.095050  2.698350
Ni  8.095050  0.899450 11.692850
Al  4.497250  8.095050  0.899450
Ni 13.491750  0.899450 13.491750
Ni 13.491750  2.698350 11.692850
Al  4.497250  9.893950  2.698350
Ni  0.899450  6.296150 13.491750
Al  0.899450  9.893950  2.698350
Ni  2.698350  6.296150 11.692850
Ni  0.899450  4.497250 11.692850
Al 13.491750  6.296150  0.899450
Ni  6.296150  4.497250 13.491750
Ni  6.296150  6.296150 11.692850
Ni  4.497250  4.497250 11.692850
Ni  8.095050  6.296150 13.491750
Ni  9.893950  4.497250 13.491750
Ni  9.893950  6.296150 11.692850
Ni  8.095050  4.497250 11.692850
Ni 11.692850  6.296150 13.491750
Ni 13.491750  4.497250 13.491750
Ni 13.491750  6.296150 11.692850
Ni 11.692850  4.497250 11.692850
Ni  0.899450  9.893950 13.491750
Ni  2.698350  8.095050 13.491750
Ni  2.698350  9.893950 11.692850
Ni  0.899450  8.095050 11.692850
Ni  4.497250  9.893950 13.491750
Ni  6.296150  8.095050 13.491750
Al 11.692850  6.296150  2.698350
Al  9.893950  6.296150  0.899450
Al  4.497250  4.497250  0.899450
Al  6.296150  6.296150  0.899450
Al  0.899450  4.497250  0.899450
Ni  8.095050  8.095050 11.692850
Ni 11.692850  9.893950 13.491750
Ni 13.491750  8.095050 13.491750
Ni 13.491750  9.893950 11.692850
Ni 11.692850  8.095050 11.692850
Ni  0.899450 13.491750 13.491750
Ni  2.698350 11.692850 13.491750
Ni  2.698350 13.491750 11.692850
Ni  0.899450 11.692850 11.692850
Ni  4.497250 13.491750 13.491750
Ni  6.296150 11.692850 13.491750
Ni  6.296150 13.491750 11.692850
Ni  4.497250 11.692850 11.692850
Ni  8.095050 13.491750 13.491750
Al  9.893950  2.698350  0.899450
Ni  9.893950 13.491750 11.692850
Ni  8.095050 11.692850 11.692850
Ni 11.692850 13.491750 13.491750
Al  4.497250  2.698350  2.698350
Al  2.698350  0.899450  2.698350
Ni 11.692850 11.692850 11.692850
%ENDBLOCK POSITIONS_ABS

K_POINTS_MP_GRID : 1 1 1
