#######################################################
#CASTEP cell file: /home/u2093113/Documents/kART/CASTEP/castep.cell
#Created using the Atomic Simulation Environment (ASE)#
#######################################################

%BLOCK LATTICE_CART
14.464828  0.000000  0.000000
 0.000000 14.464828  0.000000
 0.000000  0.000000 14.464828
%ENDBLOCK LATTICE_CART

%BLOCK POSITIONS_ABS
Al  4.556026  4.475420  0.887434
Al  8.186036  4.498470  0.886514
Al 11.814638  4.500793  0.879333
Al  4.545933  8.123412  0.925359
Al  8.188365  8.103425  0.890592
Al 11.803747  8.094451  0.887009
Al  4.629750 11.729094  0.819900
Al  8.203168 11.716887  0.872628
Al 11.814454 11.721168  0.886395
Al  4.565470  0.882631  0.882896
Al  8.210799  0.885236  0.870379
Al 11.795420  0.896197  0.864504
Al  4.542047  4.455862  4.502878
Al  8.192726  4.490309  4.508384
Al 11.801741  4.501588  4.506675
Al  4.621332  8.027234  4.484275
Al  8.177108  8.097511  4.509638
Al 11.821735  8.093776  4.499081
Al  4.734556 11.832605  4.511914
Al  8.202005 11.718200  4.502780
Al 11.802806 11.714030  4.508078
Al  4.631307  0.853560  4.427554
Al  8.217933  0.894087  4.500982
Al 11.815955  0.887067  4.509470
Al  4.508577  4.499695  8.104614
Al  8.178967  4.510271  8.120277
Al 11.824854  4.505903  8.123675
Al  4.493945  8.085638  8.104299
Al  8.169756  8.098139  8.119087
Al 11.835178  8.091706  8.129903
Al  4.631257 11.737776  8.182295
Al  8.203686 11.705687  8.136563
Al 11.817151 11.716594  8.119239
Al  4.667135  0.866148  8.212822
Al  8.205090  0.882801  8.129514
Al 11.799448  0.887456  8.127393
Al  4.566593  4.489304 11.747695
Al  8.179044  4.505471 11.727092
Al 11.818273  4.501994 11.722180
Al  4.521894  8.103517 11.741936
Al  8.170625  8.102680 11.725292
Al 11.861829  8.097217 11.723609
Al  4.549835 11.715331 11.745976
Al  8.207017 11.710601 11.735015
Al 11.818460 11.707696 11.724229
Al  4.572414  0.886822 11.730525
Al  8.210642  0.882508 11.745829
Al 11.814062  0.894837 11.728202
Al  0.942435  2.690588 13.538862
Al  0.940114 13.554744 13.538703
Al  0.952361  9.992040 13.654812
Al  0.954544  9.997922  9.850418
Al  1.082763  6.214576  9.738349
Al  0.963864  8.013377 11.806074
Al  0.829677  0.884403  4.416017
Al  2.678013  0.860494  6.384802
Al  2.600611 11.843489  6.351607
Al  2.578272  9.820193  4.482231
Al  1.014373  6.263623  6.351374
Al  2.598843 11.824987  2.645169
Ni  4.547543  6.274250  2.684580
Ni  6.366505  4.480870  2.696423
Ni  6.366050  6.301468  0.896993
Ni  8.182554  6.296579  2.699810
Ni 10.002812  4.501287  2.694323
Ni  9.994519  6.300465  0.881865
Ni 11.807608  6.294148  2.686108
Ni 13.626937  4.488088  2.691487
Ni 13.631736  6.289151  0.892609
Ni  4.503199 10.007334  2.807118
Ni  6.361701  8.113301  2.697386
Ni  6.361677  9.910226  0.901546
Ni  8.191330  9.904606  2.690665
Ni 10.003393  8.101047  2.699647
Ni 10.013454  9.905181  0.881986
Ni 11.810412  9.903712  2.710015
Ni 13.615231  8.083992  2.689440
Ni 13.591841  9.905895  0.901220
Ni  4.569975 13.492634  2.672293
Ni  6.406308 11.728787  2.673569
Ni  6.388117 13.540610  0.872413
Ni  8.209242 13.538132  2.682527
Ni 10.005808 11.715487  2.693003
Ni 10.014370 13.531541  0.874255
Ni 11.798375 13.535787  2.694391
Ni 13.599529 11.728649  2.689343
Ni 13.596650 13.554335  0.892221
Ni  4.549557  2.676228  2.694254
Ni  6.404847  0.879726  2.669087
Ni  6.375870  2.685468  0.882817
Ni  8.198981  2.694570  2.689641
Ni 10.014608  0.885724  2.690317
Ni 10.009192  2.702718  0.875944
Ni 11.800488  2.703703  2.694032
Ni 13.560788  0.900821  2.649742
Ni 13.622763  2.699557  0.895735
Ni  4.499225  6.274274  6.306104
Ni  6.351816  4.482951  6.312870
Ni  6.371964  6.269327  4.504360
Ni  8.174442  6.302981  6.317948
Ni 10.007325  4.507370  6.319942
Ni 10.002727  6.303280  4.510262
Ni 11.835220  6.296835  6.312932
Ni 13.639390  4.465365  6.316589
Ni 13.617985  6.259157  4.495888
Ni  4.497610 10.011603  6.203020
Ni  6.329361  8.108958  6.313275
Ni  6.384139  9.916101  4.507429
Ni  8.184961  9.895430  6.323282
Ni 10.013124  8.097355  6.317725
Ni  9.996063  9.901773  4.506908
Ni 11.815358  9.904199  6.300266
Ni 13.628599  8.106916  6.305234
Ni 13.632415  9.907480  4.499736
Ni  4.578357 13.556939  6.334373
Ni  6.411013 11.731316  6.334281
Ni  6.436319 13.571813  4.498444
Ni  8.212670 13.532660  6.321342
Ni 10.005187 11.710633  6.318955
Ni 10.009935 13.532337  4.506014
Ni 11.807093 13.531202  6.321672
Ni 13.611478 11.728802  6.315009
Ni 13.574710 13.526218  4.499659
Ni  4.559496  2.599745  6.315886
Ni  6.409387  0.872231  6.316348
Ni  6.376519  2.679331  4.503290
Ni  8.195369  2.698657  6.317638
Ni 10.011683  0.884681  6.320251
Ni 10.010419  2.695469  4.507805
Ni 11.807153  2.700177  6.321098
Ni 13.589445  0.900415  6.330630
Ni 13.599513  2.720511  4.492626
Ni  4.488802  6.293429  9.914183
Ni  6.348096  4.500760  9.916329
Ni  6.307240  6.299733  8.108851
Ni  8.169701  6.307430  9.920636
Ni 10.007485  4.509932  9.923734
Ni 10.008743  6.306327  8.123463
Ni 11.853316  6.301330  9.926878
Ni 13.651720  4.479556  9.908367
Ni 13.673510  6.291914  8.102977
Ni  4.519673  9.907773  9.930122
Ni  6.326131  8.103489  9.913434
Ni  6.339770  9.904253  8.106816
Ni  8.179389  9.896836  9.926398
Ni 10.013150  8.099457  9.926511
Ni 10.017685  9.896836  8.127551
Ni 11.854905  9.891362  9.931938
Ni 13.737175  8.084218  9.913636
Ni 13.609861  9.916002  8.099521
Ni  4.576416 13.537981  9.946189
Ni  6.383161 11.712452  9.951264
Ni  6.405491 13.526882  8.134993
Ni  8.207268 13.523325  9.938508
Ni 10.020710 11.704056  9.928582
Ni 10.009621 13.527809  8.127369
Ni 11.801106 13.544445  9.925773
Ni 13.602667 11.750026  9.939477
Ni 13.606579 13.553209  8.127368
Ni  4.575773  2.680016  9.926936
Ni  6.417014  0.877104  9.957566
Ni  6.380895  2.694341  8.121193
Ni  8.195703  2.703068  9.931081
Ni 10.001699  0.887808  9.931147
Ni 10.002562  2.701833  8.125149
Ni 11.809312  2.693640  9.919964
Ni 13.607806  0.884944  9.937526
Ni 13.618467  2.678474  8.125973
Ni  4.547829  6.302138 13.567979
Ni  6.369515  4.496988 13.548255
Ni  6.345818  6.306536 11.732705
Ni  8.179092  6.306473 13.536891
Ni 10.001631  4.504874 13.533810
Ni 10.007834  6.307820 11.724577
Ni 11.820084  6.300854 13.540023
Ni 13.636338  4.514213 13.538970
Ni 13.664690  6.270032 11.722323
Ni  4.528307  9.899754 13.552446
Ni  6.355257  8.108093 13.555205
Ni  6.353112  9.901637 11.735208
Ni  8.186711  9.901282 13.538789
Ni 10.004187  8.100568 13.531399
Ni 10.015868  9.894779 11.726519
Ni 11.835405  9.888991 13.531940
Ni 13.652787  8.079602 13.568709
Ni 13.712935  9.899718 11.740487
Ni  4.553891 13.552042 13.531321
Ni  6.385220 11.714819 13.525615
Ni  6.386302 13.529528 11.743003
Ni  8.203843 13.530512 13.537407
Ni 10.020287 11.711114 13.535364
Ni 10.016877 13.528375 11.735142
Ni 11.815340 13.540325 13.528557
Ni 13.590843 11.735484 13.518598
Ni 13.616771 13.547083 11.712335
Ni  4.549349  2.684879 13.542897
Ni  6.380253  0.883233 13.539263
Ni  6.377520  2.693228 11.737698
Ni  8.194567  2.698344 13.538229
Ni 10.013820  0.889557 13.531297
Ni 10.010838  2.704255 11.731323
Ni 11.831747  2.710168 13.528983
Ni 13.620902  0.889752 13.534952
Ni 13.634112  2.699927 11.707733
Ni  0.947565  6.279778  2.709686
Ni  2.731996  4.474822  2.699528
Ni  0.953025  8.080757  0.916760
Ni  0.951867  4.494188  0.901595
Ni  0.917965  9.911688  2.659003
Ni  2.733756  8.081690  2.707279
Ni  2.762622  9.940886  0.943235
Ni  0.869965 11.766271  0.885818
Ni  0.884112 13.567332  2.690534
Ni  0.923146 11.734365  4.496676
Ni  2.740608 13.554996  0.882636
Ni  0.937011  0.883428  0.908106
Ni  0.944810  2.688381  2.674133
Ni  2.743667  0.857075  2.664588
Ni  2.730924  2.680686  0.902207
Ni  2.739323  4.400856  6.297103
Ni  2.731276  6.277717  4.497780
Ni  0.957928  4.458514  4.489183
Ni  0.934124  9.929333  6.319536
Ni  2.756016  8.118256  6.290006
Ni  0.888849  8.051618  4.489202
Ni  0.881503 13.598671  6.299500
Ni  2.744457 13.567599  4.505786
Ni  0.935327  2.648583  6.294215
Ni  2.731538  2.595207  4.498935
Ni  2.764983  4.427461  9.930879
Ni  0.983165  4.401384  8.094935
Ni  2.678499  8.133147  9.931989
Ni  2.770478  9.933735  8.070984
Ni  0.980720  8.145214  8.050170
Ni  0.945305 13.543371  9.922582
Ni  2.748740 11.750761  9.928823
Ni  2.742686 13.550021  8.157987
Ni  0.898748 11.782371  8.127019
Ni  0.959998  2.680489  9.930353
Ni  2.749699  0.883875  9.937874
Ni  2.755313  2.654258  8.128996
Ni  0.918247  0.882363  8.161894
Ni  0.960063  6.256668 13.572844
Ni  2.746893  4.499879 13.546728
Ni  2.738145  6.269981 11.729684
Ni  0.964332  4.487434 11.720500
Ni  2.737018  6.280556  0.898411
Ni  2.672661  9.923391 11.762819
Ni  2.724267  8.089112 13.582281
Ni  2.746191 11.747674 13.560151
Ni  2.746451 13.544774 11.709789
Ni  0.951636 11.774472 11.721513
Ni  0.949505  0.881422 11.698484
Ni  2.740053  0.888781 13.530952
Ni  2.747341  2.679986 11.725324
%ENDBLOCK POSITIONS_ABS

