#######################################################
#CASTEP cell file: /home/u2093113/Documents/kART/CASTEP/castep.cell
#Created using the Atomic Simulation Environment (ASE)#
#######################################################

%BLOCK LATTICE_CART
14.464828  0.000000  0.000000
 0.000000 14.464828  0.000000
 0.000000  0.000000 14.464828
%ENDBLOCK LATTICE_CART

%BLOCK POSITIONS_ABS
Al  4.555763  4.483257  0.890466
Al  8.181545  4.497432  0.883347
Al 11.817928  4.497613  0.879538
Al  4.547891  8.117229  0.927291
Al  8.187087  8.106386  0.886912
Al 11.809586  8.096894  0.886878
Al  4.623393 11.722464  0.817654
Al  8.202174 11.718967  0.870537
Al 11.820782 11.721009  0.885849
Al  4.561804  0.884778  0.883823
Al  8.207582  0.883192  0.869423
Al 11.799453  0.892767  0.865477
Al  4.546831  4.504892  4.543979
Al  8.205314  4.486635  4.501389
Al 11.800526  4.496836  4.496974
Al  4.616677  7.970559  4.556354
Al  8.190282  8.100531  4.504629
Al 11.819699  8.097357  4.491323
Al  4.737733 11.828075  4.511994
Al  8.202826 11.719280  4.500748
Al 11.806089 11.719441  4.503373
Al  4.629084  0.857148  4.424402
Al  8.215164  0.896317  4.497476
Al 11.815751  0.884578  4.503464
Al  4.554675  4.498965  8.064225
Al  8.189153  4.509131  8.121757
Al 11.820696  4.496491  8.118211
Al  4.535654  8.096143  8.073258
Al  8.188994  8.100570  8.122286
Al 11.836485  8.097579  8.124060
Al  4.631172 11.732635  8.178695
Al  8.205678 11.708566  8.136545
Al 11.822006 11.723270  8.117584
Al  4.663440  0.875905  8.208395
Al  8.200730  0.882485  8.128329
Al 11.801427  0.884933  8.123371
Al  4.564783  4.495964 11.738942
Al  8.182326  4.505647 11.729913
Al 11.820790  4.497222 11.728432
Al  4.514526  8.098129 11.727626
Al  8.176868  8.104174 11.729735
Al 11.866160  8.099752 11.728583
Al  4.541295 11.713157 11.738835
Al  8.205802 11.710699 11.734522
Al 11.826736 11.711503 11.723935
Al  4.567074  0.889775 11.731345
Al  8.200544  0.881516 11.742847
Al 11.817007  0.892537 11.726879
Al  0.950359  2.689964 13.541370
Al  0.941603 13.552993 13.538463
Al  0.952138  9.990804 13.653421
Al  0.960882  9.988934  9.840306
Al  0.977444  6.194178  9.817337
Al  0.962970  8.019531 11.809819
Al  0.835715  0.887195  4.411376
Al  2.685722  0.865488  6.384094
Al  2.601864 11.843858  6.352419
Al  2.592041  9.808662  4.489987
Al  0.958830  6.264140  6.289538
Al  2.603604 11.818804  2.647259
Ni  4.554356  6.275046  2.711588
Ni  6.366457  4.481830  2.700990
Ni  6.361841  6.304140  0.896914
Ni  8.186721  6.297945  2.685766
Ni 10.002895  4.497210  2.687074
Ni  9.998033  6.299787  0.877476
Ni 11.811242  6.291265  2.681963
Ni 13.626429  4.486848  2.687790
Ni 13.632798  6.290416  0.895099
Ni  4.508570  9.992254  2.813764
Ni  6.356853  8.112267  2.707871
Ni  6.358917  9.904971  0.899242
Ni  8.190113  9.904463  2.688351
Ni 10.003865  8.101450  2.691817
Ni 10.016482  9.909577  0.879015
Ni 11.812886  9.908024  2.708938
Ni 13.613467  8.088559  2.686120
Ni 13.599807  9.907104  0.905278
Ni  4.570062 13.489689  2.673600
Ni  6.404221 11.727361  2.673618
Ni  6.381569 13.541107  0.869414
Ni  8.208120 13.539833  2.679920
Ni 10.009160 11.718721  2.688356
Ni 10.016148 13.533116  0.872913
Ni 11.801165 13.533336  2.692345
Ni 13.604080 11.728042  2.688588
Ni 13.598356 13.548281  0.891762
Ni  4.551327  2.688875  2.704157
Ni  6.401706  0.883213  2.663362
Ni  6.370766  2.686344  0.883813
Ni  8.195198  2.692598  2.688502
Ni 10.013534  0.886221  2.686430
Ni 10.007925  2.698402  0.874050
Ni 11.801968  2.701344  2.689762
Ni 13.567701  0.895836  2.652647
Ni 13.625424  2.698025  0.898097
Ni  2.764149  6.269111  8.072760
Ni  6.374133  4.495883  6.308392
Ni  6.393377  6.264777  4.515369
Ni  8.176572  6.303283  6.315521
Ni 10.005830  4.505087  6.316288
Ni  9.999874  6.300851  4.502436
Ni 11.827341  6.296388  6.299117
Ni 13.626648  4.461228  6.303726
Ni 13.609353  6.261612  4.482395
Ni  4.512361  9.986531  6.201382
Ni  6.359832  8.100419  6.316389
Ni  6.390627  9.909347  4.507886
Ni  8.196638  9.904726  6.323475
Ni 10.015840  8.098772  6.313965
Ni  9.999039  9.903082  4.503663
Ni 11.818949  9.910765  6.296991
Ni 13.618176  8.112499  6.295872
Ni 13.630517  9.914367  4.497613
Ni  4.581184 13.557949  6.331643
Ni  6.411548 11.729528  6.333522
Ni  6.432245 13.566867  4.496230
Ni  8.208472 13.534772  6.320354
Ni 10.008402 11.714937  6.317604
Ni 10.009656 13.535919  4.501650
Ni 11.813346 13.533355  6.318385
Ni 13.612565 11.728594  6.312705
Ni 13.581907 13.527900  4.496583
Ni  4.567269  2.627029  6.306802
Ni  6.405007  0.881555  6.315732
Ni  6.376377  2.690130  4.499004
Ni  8.197446  2.691094  6.314007
Ni 10.011162  0.883132  6.315956
Ni 10.009127  2.692737  4.503712
Ni 11.808233  2.694733  6.315928
Ni 13.591177  0.901903  6.324079
Ni 13.599449  2.712450  4.485668
Ni  4.525137  6.295236  9.896984
Ni  6.356874  4.504270  9.916103
Ni  6.342274  6.302141  8.092764
Ni  8.178406  6.307852  9.930999
Ni 10.006411  4.508157  9.924349
Ni 10.014956  6.306887  8.123539
Ni 11.851831  6.298274  9.931071
Ni 13.628126  4.462479  9.910677
Ni 13.631412  6.288336  8.094514
Ni  4.515103  9.904658  9.924124
Ni  6.339392  8.103712  9.912327
Ni  6.350578  9.897972  8.109425
Ni  8.184547  9.898711  9.925828
Ni 10.020589  8.099825  9.929378
Ni 10.022467  9.898216  8.127122
Ni 11.859452  9.899697  9.929178
Ni 13.719652  8.092553  9.915090
Ni 13.617315  9.915356  8.094637
Ni  4.575240 13.541535  9.942113
Ni  6.381856 11.708417  9.953427
Ni  6.403511 13.529544  8.135265
Ni  8.200962 13.522309  9.938220
Ni 10.022043 11.706760  9.929887
Ni 10.006925 13.528639  8.128603
Ni 11.806513 13.547641  9.923323
Ni 13.608526 11.753623  9.934615
Ni 13.609125 13.556127  8.124209
Ni  4.575656  2.687502  9.920712
Ni  6.414216  0.880942  9.958020
Ni  6.385181  2.702517  8.118932
Ni  8.190025  2.702957  9.929335
Ni  9.996259  0.884839  9.932038
Ni  9.997980  2.700078  8.122216
Ni 11.808425  2.685432  9.917488
Ni 13.609964  0.890474  9.934560
Ni 13.622614  2.682663  8.117561
Ni  4.551160  6.304420 13.563761
Ni  6.368982  4.497747 13.544988
Ni  6.348701  6.307659 11.731895
Ni  8.179990  6.307486 13.538062
Ni 10.002801  4.501548 13.534422
Ni 10.012810  6.308336 11.728867
Ni 11.822939  6.299229 13.545892
Ni 13.635989  4.511674 13.545072
Ni 13.659812  6.272465 11.732776
Ni  4.525753  9.895514 13.544959
Ni  6.353288  8.108860 13.550100
Ni  6.352098  9.898698 11.732816
Ni  8.188344  9.903868 13.538298
Ni 10.009135  8.103765 13.531879
Ni 10.022961  9.897297 11.727370
Ni 11.841946  9.893134 13.533103
Ni 13.656956  8.083603 13.569484
Ni 13.713868  9.905763 11.735871
Ni  4.545917 13.548299 13.530133
Ni  6.380187 11.714878 13.519315
Ni  6.377873 13.529525 11.741133
Ni  8.198990 13.529425 13.535072
Ni 10.023309 11.711868 13.532932
Ni 10.016123 13.529590 11.732616
Ni 11.819439 13.540036 13.529171
Ni 13.597370 11.736927 13.519314
Ni 13.619225 13.549695 11.711087
Ni  4.544149  2.690396 13.541182
Ni  6.374749  0.881427 13.538465
Ni  6.374992  2.697428 11.735494
Ni  8.189586  2.696154 13.537440
Ni 10.014177  0.887815 13.531018
Ni 10.007237  2.700477 11.730893
Ni 11.831325  2.705100 13.531832
Ni 13.621122  0.886987 13.538822
Ni 13.631904  2.695246 11.710385
Ni  0.943751  6.281070  2.704361
Ni  2.734469  4.481219  2.705327
Ni  0.958337  8.081360  0.920837
Ni  0.956192  4.492221  0.903440
Ni  0.923995  9.909802  2.665448
Ni  2.740576  8.077089  2.714043
Ni  2.765084  9.935411  0.946142
Ni  0.873957 11.761753  0.889573
Ni  0.889897 13.567199  2.689712
Ni  0.924865 11.731636  4.497948
Ni  2.737325 13.546263  0.883687
Ni  0.936367  0.882379  0.906733
Ni  0.946391  2.686580  2.673967
Ni  2.741540  0.858126  2.666528
Ni  2.734387  2.685420  0.907637
Ni  2.735770  4.410691  6.295884
Ni  2.726509  6.277617  4.493631
Ni  0.953307  4.455370  4.479854
Ni  0.935685  9.926927  6.316280
Ni  2.756328  8.111627  6.296694
Ni  0.890800  8.058654  4.479547
Ni  0.884914 13.600430  6.298725
Ni  2.747085 13.567388  4.501535
Ni  0.934518  2.651224  6.290081
Ni  2.737035  2.612465  4.503011
Ni  2.769137  4.453484  9.912885
Ni  0.959760  4.421371  8.086230
Ni  2.672711  8.097348  9.905950
Ni  2.768718  9.941823  8.060234
Ni  0.957282  8.125055  8.047137
Ni  0.944750 13.548769  9.916745
Ni  2.745315 11.754155  9.922873
Ni  2.743075 13.555107  8.156001
Ni  0.898931 11.782116  8.124121
Ni  0.956843  2.689309  9.922462
Ni  2.747670  0.889445  9.936325
Ni  2.753120  2.654118  8.122262
Ni  0.920509  0.886127  8.158880
Ni  0.960821  6.257521 13.578287
Ni  2.746940  4.501228 13.550133
Ni  2.732900  6.269126 11.737811
Ni  0.959014  4.478915 11.728447
Ni  2.741819  6.282224  0.903193
Ni  2.663794  9.907457 11.740485
Ni  2.722932  8.089323 13.581402
Ni  2.739783 11.737827 13.551886
Ni  2.740143 13.548057 11.708272
Ni  0.951229 11.776206 11.712896
Ni  0.948411  0.885638 11.694442
Ni  2.736003  0.892308 13.532735
Ni  2.747081  2.693337 11.714748
%ENDBLOCK POSITIONS_ABS

