#######################################################
#CASTEP cell file: /home/u2093113/Documents/kART/CASTEP/castep.cell
#Created using the Atomic Simulation Environment (ASE)#
#######################################################

%BLOCK LATTICE_CART
14.464828  0.000000  0.000000
 0.000000 14.464828  0.000000
 0.000000  0.000000 14.464828
%ENDBLOCK LATTICE_CART

%BLOCK POSITIONS_ABS
Al  4.555894  4.479339  0.888950
Al  8.183791  4.497951  0.884931
Al 11.816283  4.499203  0.879435
Al  4.546912  8.120320  0.926325
Al  8.187726  8.104906  0.888752
Al 11.806666  8.095673  0.886943
Al  4.626571 11.725779  0.818777
Al  8.202671 11.717927  0.871583
Al 11.817618 11.721088  0.886122
Al  4.563637  0.883704  0.883360
Al  8.209191  0.884214  0.869901
Al 11.797437  0.894482  0.864991
Al  4.544439  4.480377  4.523428
Al  8.199020  4.488472  4.504886
Al 11.801134  4.499212  4.501824
Al  4.619004  7.998897  4.520314
Al  8.183695  8.099021  4.507133
Al 11.820717  8.095567  4.495202
Al  4.736145 11.830340  4.511954
Al  8.202415 11.718740  4.501764
Al 11.804448 11.716735  4.505726
Al  4.630195  0.855354  4.425978
Al  8.216548  0.895202  4.499229
Al 11.815853  0.885822  4.506467
Al  4.531626  4.499330  8.084420
Al  8.184060  4.509701  8.121017
Al 11.822775  4.501197  8.120943
Al  4.514800  8.090891  8.088779
Al  8.179375  8.099355  8.120687
Al 11.835831  8.094642  8.126981
Al  4.631215 11.735206  8.180495
Al  8.204682 11.707126  8.136554
Al 11.819578 11.719932  8.118411
Al  4.665287  0.871027  8.210609
Al  8.202910  0.882643  8.128922
Al 11.800437  0.886195  8.125382
Al  4.565688  4.492634 11.743319
Al  8.180685  4.505559 11.728502
Al 11.819532  4.499608 11.725306
Al  4.518210  8.100823 11.734781
Al  8.173747  8.103427 11.727513
Al 11.863994  8.098485 11.726096
Al  4.545565 11.714244 11.742405
Al  8.206409 11.710650 11.734769
Al 11.822598 11.709599 11.724082
Al  4.569744  0.888298 11.730935
Al  8.205593  0.882012 11.744338
Al 11.815535  0.893687 11.727541
Al  0.946397  2.690276 13.540116
Al  0.940858 13.553869 13.538583
Al  0.952250  9.991422 13.654117
Al  0.957713  9.993428  9.845362
Al  1.030104  6.204377  9.777843
Al  0.963417  8.016454 11.807947
Al  0.832696  0.885799  4.413696
Al  2.681868  0.862991  6.384448
Al  2.601238 11.843674  6.352013
Al  2.585157  9.814427  4.486109
Al  0.986601  6.263881  6.320456
Al  2.601224 11.821895  2.646214
Ni  4.550950  6.274648  2.698084
Ni  6.366481  4.481350  2.698706
Ni  6.363946  6.302804  0.896954
Ni  8.184637  6.297262  2.692788
Ni 10.002853  4.499249  2.690699
Ni  9.996276  6.300126  0.879670
Ni 11.809425  6.292707  2.684035
Ni 13.626683  4.487468  2.689638
Ni 13.632267  6.289783  0.893854
Ni  4.505884  9.999794  2.810441
Ni  6.359277  8.112784  2.702628
Ni  6.360297  9.907599  0.900394
Ni  8.190721  9.904535  2.689508
Ni 10.003629  8.101248  2.695732
Ni 10.014968  9.907379  0.880500
Ni 11.811649  9.905868  2.709477
Ni 13.614349  8.086276  2.687780
Ni 13.595824  9.906499  0.903249
Ni  4.570018 13.491162  2.672947
Ni  6.405264 11.728074  2.673593
Ni  6.384843 13.540859  0.870914
Ni  8.208681 13.538982  2.681223
Ni 10.007484 11.717104  2.690679
Ni 10.015259 13.532329  0.873584
Ni 11.799770 13.534562  2.693368
Ni 13.601805 11.728345  2.688965
Ni 13.597503 13.551308  0.891991
Ni  4.550442  2.682552  2.699205
Ni  6.403276  0.881470  2.666224
Ni  6.373318  2.685906  0.883315
Ni  8.197090  2.693584  2.689071
Ni 10.014071  0.885972  2.688374
Ni 10.008559  2.700560  0.874997
Ni 11.801228  2.702524  2.691897
Ni 13.564244  0.898328  2.651194
Ni 13.624094  2.698791  0.896916
Ni  3.631687  6.271692  7.189432
Ni  6.362975  4.489417  6.310631
Ni  6.382670  6.267052  4.509865
Ni  8.175507  6.303132  6.316734
Ni 10.006578  4.506229  6.318115
Ni 10.001301  6.302066  4.506349
Ni 11.831280  6.296611  6.306024
Ni 13.633019  4.463297  6.310157
Ni 13.613669  6.260385  4.489141
Ni  4.504986  9.999067  6.202201
Ni  6.344597  8.104689  6.314832
Ni  6.387383  9.912724  4.507658
Ni  8.190800  9.900078  6.323378
Ni 10.014482  8.098064  6.315845
Ni  9.997551  9.902427  4.505285
Ni 11.817153  9.907482  6.298629
Ni 13.623388  8.109708  6.300553
Ni 13.631466  9.910924  4.498674
Ni  4.579771 13.557444  6.333008
Ni  6.411281 11.730422  6.333902
Ni  6.434282 13.569340  4.497337
Ni  8.210571 13.533716  6.320848
Ni 10.006794 11.712785  6.318279
Ni 10.009796 13.534128  4.503832
Ni 11.810220 13.532279  6.320029
Ni 13.612022 11.728698  6.313857
Ni 13.578309 13.527059  4.498121
Ni  4.563382  2.613387  6.311344
Ni  6.407197  0.876893  6.316040
Ni  6.376448  2.684730  4.501147
Ni  8.196407  2.694876  6.315823
Ni 10.011423  0.883906  6.318103
Ni 10.009773  2.694103  4.505758
Ni 11.807693  2.697455  6.318513
Ni 13.590311  0.901159  6.327354
Ni 13.599481  2.716481  4.489147
Ni  4.506970  6.294333  9.905583
Ni  6.352485  4.502515  9.916216
Ni  6.324757  6.300937  8.100808
Ni  8.174054  6.307641  9.925817
Ni 10.006948  4.509045  9.924042
Ni 10.011849  6.306607  8.123501
Ni 11.852573  6.299802  9.928974
Ni 13.639923  4.471018  9.909522
Ni 13.652461  6.290125  8.098746
Ni  4.517388  9.906215  9.927123
Ni  6.332762  8.103601  9.912881
Ni  6.345174  9.901113  8.108121
Ni  8.181968  9.897773  9.926113
Ni 10.016870  8.099641  9.927945
Ni 10.020076  9.897526  8.127337
Ni 11.857179  9.895530  9.930558
Ni 13.728413  8.088385  9.914363
Ni 13.613588  9.915679  8.097079
Ni  4.575828 13.539758  9.944151
Ni  6.382508 11.710434  9.952346
Ni  6.404501 13.528213  8.135129
Ni  8.204115 13.522817  9.938364
Ni 10.021376 11.705408  9.929235
Ni 10.008273 13.528224  8.127986
Ni 11.803809 13.546043  9.924548
Ni 13.605597 11.751824  9.937046
Ni 13.607852 13.554668  8.125789
Ni  4.575715  2.683759  9.923824
Ni  6.415615  0.879023  9.957793
Ni  6.383038  2.698429  8.120063
Ni  8.192864  2.703012  9.930208
Ni  9.998979  0.886324  9.931592
Ni 10.000271  2.700956  8.123683
Ni 11.808868  2.689536  9.918726
Ni 13.608885  0.887709  9.936043
Ni 13.620541  2.680569  8.121767
Ni  4.549494  6.303279 13.565870
Ni  6.369248  4.497368 13.546621
Ni  6.347260  6.307097 11.732300
Ni  8.179541  6.306980 13.537477
Ni 10.002216  4.503211 13.534116
Ni 10.010322  6.308078 11.726722
Ni 11.821511  6.300041 13.542958
Ni 13.636164  4.512943 13.542021
Ni 13.662251  6.271248 11.727549
Ni  4.527030  9.897634 13.548703
Ni  6.354273  8.108476 13.552653
Ni  6.352605  9.900167 11.734012
Ni  8.187527  9.902575 13.538543
Ni 10.006661  8.102166 13.531639
Ni 10.019415  9.896038 11.726944
Ni 11.838675  9.891063 13.532522
Ni 13.654872  8.081602 13.569096
Ni 13.713401  9.902740 11.738179
Ni  4.549904 13.550171 13.530727
Ni  6.382703 11.714848 13.522465
Ni  6.382088 13.529526 11.742068
Ni  8.201417 13.529968 13.536240
Ni 10.021798 11.711491 13.534148
Ni 10.016500 13.528982 11.733879
Ni 11.817390 13.540181 13.528864
Ni 13.594107 11.736205 13.518956
Ni 13.617998 13.548389 11.711711
Ni  4.546749  2.687637 13.542039
Ni  6.377501  0.882330 13.538864
Ni  6.376256  2.695328 11.736596
Ni  8.192077  2.697249 13.537835
Ni 10.013999  0.888686 13.531157
Ni 10.009037  2.702366 11.731108
Ni 11.831536  2.707634 13.530407
Ni 13.621012  0.888369 13.536887
Ni 13.633008  2.697587 11.709059
Ni  0.945658  6.280424  2.707024
Ni  2.733233  4.478020  2.702427
Ni  0.955681  8.081058  0.918799
Ni  0.954030  4.493204  0.902518
Ni  0.920980  9.910745  2.662226
Ni  2.737166  8.079390  2.710661
Ni  2.763853  9.938149  0.944688
Ni  0.871961 11.764012  0.887695
Ni  0.887005 13.567265  2.690123
Ni  0.924006 11.733000  4.497312
Ni  2.738966 13.550629  0.883162
Ni  0.936689  0.882904  0.907419
Ni  0.945600  2.687481  2.674050
Ni  2.742604  0.857600  2.665558
Ni  2.732656  2.683053  0.904922
Ni  2.737546  4.405773  6.296493
Ni  2.728893  6.277667  4.495706
Ni  0.955617  4.456942  4.484518
Ni  0.934905  9.928130  6.317908
Ni  2.756172  8.114941  6.293350
Ni  0.889825  8.055136  4.484374
Ni  0.883208 13.599551  6.299112
Ni  2.745771 13.567494  4.503660
Ni  0.934922  2.649904  6.292148
Ni  2.734286  2.603836  4.500973
Ni  2.767060  4.440472  9.921882
Ni  0.971463  4.411378  8.090582
Ni  2.675605  8.115248  9.918970
Ni  2.769598  9.937779  8.065609
Ni  0.969001  8.135134  8.048654
Ni  0.945028 13.546070  9.919664
Ni  2.747028 11.752458  9.925848
Ni  2.742881 13.552564  8.156994
Ni  0.898839 11.782244  8.125570
Ni  0.958421  2.684899  9.926407
Ni  2.748685  0.886660  9.937099
Ni  2.754216  2.654188  8.125629
Ni  0.919378  0.884245  8.160387
Ni  0.960442  6.257095 13.575566
Ni  2.746917  4.500553 13.548430
Ni  2.735522  6.269554 11.733748
Ni  0.961673  4.483175 11.724473
Ni  2.739418  6.281390  0.900802
Ni  2.668228  9.915424 11.751652
Ni  2.723600  8.089218 13.581842
Ni  2.742987 11.742750 13.556019
Ni  2.743297 13.546415 11.709030
Ni  0.951432 11.775339 11.717204
Ni  0.948958  0.883530 11.696463
Ni  2.738028  0.890544 13.531843
Ni  2.747211  2.686662 11.720036
%ENDBLOCK POSITIONS_ABS

