%block lattice_abc 
  14.46482773 14.46482773 14.46482773 #lattice params 
 90.0  90.0  90.0 
     %endblock lattice_abc 
     fix_all_cell : true 
     %BLOCK POSITIONS_ABS 
Al  4.556026  4.475420  0.887434
 Al  8.186036  4.498470  0.886514
 Al 11.814638  4.500793  0.879333
 Al  4.545933  8.123412  0.925359
 Al  8.188365  8.103425  0.890592
 Al 11.803747  8.094451  0.887009
 Al  4.629750 11.729094  0.819900
 Al  8.203168 11.716887  0.872628
 Al 11.814454 11.721168  0.886395
 Al  4.565470  0.882631  0.882896
 Al  8.210799  0.885236  0.870379
 Al 11.795420  0.896197  0.864504
 Al  4.542047  4.455862  4.502878
 Al  8.192726  4.490309  4.508384
 Al 11.801741  4.501588  4.506675
 Al  4.621332  8.027234  4.484275
 Al  8.177108  8.097511  4.509638
 Al 11.821735  8.093776  4.499081
 Al  4.734556 11.832605  4.511914
 Al  8.202005 11.718200  4.502780
 Al 11.802806 11.714030  4.508078
 Al  4.631307  0.853560  4.427554
 Al  8.217933  0.894087  4.500982
 Al 11.815955  0.887067  4.509470
 Al  4.508577  4.499695  8.104614
 Al  8.178967  4.510271  8.120277
 Al 11.824854  4.505903  8.123675
 Al  4.493945  8.085638  8.104299
 Al  8.169756  8.098139  8.119087
 Al 11.835178  8.091706  8.129903
 Al  4.631257 11.737776  8.182295
 Al  8.203686 11.705687  8.136563
 Al 11.817151 11.716594  8.119239
 Al  4.667135  0.866148  8.212822
 Al  8.205090  0.882801  8.129514
 Al 11.799448  0.887456  8.127393
 Al  4.566593  4.489304 11.747695
 Al  8.179044  4.505471 11.727092
 Al 11.818273  4.501994 11.722180
 Al  4.521894  8.103517 11.741936
 Al  8.170625  8.102680 11.725292
 Al 11.861829  8.097217 11.723609
 Al  4.549835 11.715331 11.745976
 Al  8.207017 11.710601 11.735015
 Al 11.818460 11.707696 11.724229
 Al  4.572414  0.886822 11.730525
 Al  8.210642  0.882508 11.745829
 Al 11.814062  0.894837 11.728202
 Al  0.942435  2.690588 13.538862
 Al  0.940114 13.554744 13.538703
 Al  0.952361  9.992040 13.654812
 Al  0.954544  9.997922  9.850418
 Al  1.082763  6.214576  9.738349
 Al  0.963864  8.013377 11.806074
 Al  0.829677  0.884403  4.416017
 Al  2.678013  0.860494  6.384802
 Al  2.600611 11.843489  6.351607
 Al  2.578272  9.820193  4.482231
 Al  1.014373  6.263623  6.351374
 Al  2.598843 11.824987  2.645169
 Ni  4.547543  6.274250  2.684580
 Ni  6.366505  4.480870  2.696423
 Ni  6.366050  6.301468  0.896993
 Ni  8.182554  6.296579  2.699810
 Ni 10.002812  4.501287  2.694323
 Ni  9.994519  6.300465  0.881865
 Ni 11.807608  6.294148  2.686108
 Ni 13.626937  4.488088  2.691487
 Ni 13.631736  6.289151  0.892609
 Ni  4.503199 10.007334  2.807118
 Ni  6.361701  8.113301  2.697386
 Ni  6.361677  9.910226  0.901546
 Ni  8.191330  9.904606  2.690665
 Ni 10.003393  8.101047  2.699647
 Ni 10.013454  9.905181  0.881986
 Ni 11.810412  9.903712  2.710015
 Ni 13.615231  8.083992  2.689440
 Ni 13.591841  9.905895  0.901220
 Ni  4.569975 13.492634  2.672293
 Ni  6.406308 11.728787  2.673569
 Ni  6.388117 13.540610  0.872413
 Ni  8.209242 13.538132  2.682527
 Ni 10.005808 11.715487  2.693003
 Ni 10.014370 13.531541  0.874255
 Ni 11.798375 13.535787  2.694391
 Ni 13.599529 11.728649  2.689343
 Ni 13.596650 13.554335  0.892221
 Ni  4.549557  2.676228  2.694254
 Ni  6.404847  0.879726  2.669087
 Ni  6.375870  2.685468  0.882817
 Ni  8.198981  2.694570  2.689641
 Ni 10.014608  0.885724  2.690317
 Ni 10.009192  2.702718  0.875944
 Ni 11.800488  2.703703  2.694032
 Ni 13.560788  0.900821  2.649742
 Ni 13.622763  2.699557  0.895735
 Ni  4.499225  6.274274  6.306104
 Ni  6.351816  4.482951  6.312870
 Ni  6.371964  6.269327  4.504360
 Ni  8.174442  6.302981  6.317948
 Ni 10.007325  4.507370  6.319942
 Ni 10.002727  6.303280  4.510262
 Ni 11.835220  6.296835  6.312932
 Ni 13.639390  4.465365  6.316589
 Ni 13.617985  6.259157  4.495888
 Ni  4.497610 10.011603  6.203020
 Ni  6.329361  8.108958  6.313275
 Ni  6.384139  9.916101  4.507429
 Ni  8.184961  9.895430  6.323282
 Ni 10.013124  8.097355  6.317725
 Ni  9.996063  9.901773  4.506908
 Ni 11.815358  9.904199  6.300266
 Ni 13.628599  8.106916  6.305234
 Ni 13.632415  9.907480  4.499736
 Ni  4.578357 13.556939  6.334373
 Ni  6.411013 11.731316  6.334281
 Ni  6.436319 13.571813  4.498444
 Ni  8.212670 13.532660  6.321342
 Ni 10.005187 11.710633  6.318955
 Ni 10.009935 13.532337  4.506014
 Ni 11.807093 13.531202  6.321672
 Ni 13.611478 11.728802  6.315009
 Ni 13.574710 13.526218  4.499659
 Ni  4.559496  2.599745  6.315886
 Ni  6.409387  0.872231  6.316348
 Ni  6.376519  2.679331  4.503290
 Ni  8.195369  2.698657  6.317638
 Ni 10.011683  0.884681  6.320251
 Ni 10.010419  2.695469  4.507805
 Ni 11.807153  2.700177  6.321098
 Ni 13.589445  0.900415  6.330630
 Ni 13.599513  2.720511  4.492626
 Ni  4.488802  6.293429  9.914183
 Ni  6.348096  4.500760  9.916329
 Ni  6.307240  6.299733  8.108851
 Ni  8.169701  6.307430  9.920636
 Ni 10.007485  4.509932  9.923734
 Ni 10.008743  6.306327  8.123463
 Ni 11.853316  6.301330  9.926878
 Ni 13.651720  4.479556  9.908367
 Ni 13.673510  6.291914  8.102977
 Ni  4.519673  9.907773  9.930122
 Ni  6.326131  8.103489  9.913434
 Ni  6.339770  9.904253  8.106816
 Ni  8.179389  9.896836  9.926398
 Ni 10.013150  8.099457  9.926511
 Ni 10.017685  9.896836  8.127551
 Ni 11.854905  9.891362  9.931938
 Ni 13.737175  8.084218  9.913636
 Ni 13.609861  9.916002  8.099521
 Ni  4.576416 13.537981  9.946189
 Ni  6.383161 11.712452  9.951264
 Ni  6.405491 13.526882  8.134993
 Ni  8.207268 13.523325  9.938508
 Ni 10.020710 11.704056  9.928582
 Ni 10.009621 13.527809  8.127369
 Ni 11.801106 13.544445  9.925773
 Ni 13.602667 11.750026  9.939477
 Ni 13.606579 13.553209  8.127368
 Ni  4.575773  2.680016  9.926936
 Ni  6.417014  0.877104  9.957566
 Ni  6.380895  2.694341  8.121193
 Ni  8.195703  2.703068  9.931081
 Ni 10.001699  0.887808  9.931147
 Ni 10.002562  2.701833  8.125149
 Ni 11.809312  2.693640  9.919964
 Ni 13.607806  0.884944  9.937526
 Ni 13.618467  2.678474  8.125973
 Ni  4.547829  6.302138 13.567979
 Ni  6.369515  4.496988 13.548255
 Ni  6.345818  6.306536 11.732705
 Ni  8.179092  6.306473 13.536891
 Ni 10.001631  4.504874 13.533810
 Ni 10.007834  6.307820 11.724577
 Ni 11.820084  6.300854 13.540023
 Ni 13.636338  4.514213 13.538970
 Ni 13.664690  6.270032 11.722323
 Ni  4.528307  9.899754 13.552446
 Ni  6.355257  8.108093 13.555205
 Ni  6.353112  9.901637 11.735208
 Ni  8.186711  9.901282 13.538789
 Ni 10.004187  8.100568 13.531399
 Ni 10.015868  9.894779 11.726519
 Ni 11.835405  9.888991 13.531940
 Ni 13.652787  8.079602 13.568709
 Ni 13.712935  9.899718 11.740487
 Ni  4.553891 13.552042 13.531321
 Ni  6.385220 11.714819 13.525615
 Ni  6.386302 13.529528 11.743003
 Ni  8.203843 13.530512 13.537407
 Ni 10.020287 11.711114 13.535364
 Ni 10.016877 13.528375 11.735142
 Ni 11.815340 13.540325 13.528557
 Ni 13.590843 11.735484 13.518598
 Ni 13.616771 13.547083 11.712335
 Ni  4.549349  2.684879 13.542897
 Ni  6.380253  0.883233 13.539263
 Ni  6.377520  2.693228 11.737698
 Ni  8.194567  2.698344 13.538229
 Ni 10.013820  0.889557 13.531297
 Ni 10.010838  2.704255 11.731323
 Ni 11.831747  2.710168 13.528983
 Ni 13.620902  0.889752 13.534952
 Ni 13.634112  2.699927 11.707733
 Ni  0.947565  6.279778  2.709686
 Ni  2.731996  4.474822  2.699528
 Ni  0.953025  8.080757  0.916760
 Ni  0.951867  4.494188  0.901595
 Ni  0.917965  9.911688  2.659003
 Ni  2.733756  8.081690  2.707279
 Ni  2.762622  9.940886  0.943235
 Ni  0.869965 11.766271  0.885818
 Ni  0.884112 13.567332  2.690534
 Ni  0.923146 11.734365  4.496676
 Ni  2.740608 13.554996  0.882636
 Ni  0.937011  0.883428  0.908106
 Ni  0.944810  2.688381  2.674133
 Ni  2.743667  0.857075  2.664588
 Ni  2.730924  2.680686  0.902207
 Ni  2.739323  4.400856  6.297103
 Ni  2.731276  6.277717  4.497780
 Ni  0.957928  4.458514  4.489183
 Ni  0.934124  9.929333  6.319536
 Ni  2.756016  8.118256  6.290006
 Ni  0.888849  8.051618  4.489202
 Ni  0.881503 13.598671  6.299500
 Ni  2.744457 13.567599  4.505786
 Ni  0.935327  2.648583  6.294215
 Ni  2.731538  2.595207  4.498935
 Ni  2.764983  4.427461  9.930879
 Ni  0.983165  4.401384  8.094935
 Ni  2.678499  8.133147  9.931989
 Ni  2.770478  9.933735  8.070984
 Ni  0.980720  8.145214  8.050170
 Ni  0.945305 13.543371  9.922582
 Ni  2.748740 11.750761  9.928823
 Ni  2.742686 13.550021  8.157987
 Ni  0.898748 11.782371  8.127019
 Ni  0.959998  2.680489  9.930353
 Ni  2.749699  0.883875  9.937874
 Ni  2.755313  2.654258  8.128996
 Ni  0.918247  0.882363  8.161894
 Ni  0.960063  6.256668 13.572844
 Ni  2.746893  4.499879 13.546728
 Ni  2.738145  6.269981 11.729684
 Ni  0.964332  4.487434 11.720500
 Ni  2.737018  6.280556  0.898411
 Ni  2.672661  9.923391 11.762819
 Ni  2.724267  8.089112 13.582281
 Ni  2.746191 11.747674 13.560151
 Ni  2.746451 13.544774 11.709789
 Ni  0.951636 11.774472 11.721513
 Ni  0.949505  0.881422 11.698484
 Ni  2.740053  0.888781 13.530952
 Ni  2.747341  2.679986 11.725324
 %ENDBLOCK POSITIONS_ABS
 
%block positions_abs_product 
     ang 
Al  4.555763  4.483257  0.890466
 Al  8.181545  4.497432  0.883347
 Al 11.817928  4.497613  0.879538
 Al  4.547891  8.117229  0.927291
 Al  8.187087  8.106386  0.886912
 Al 11.809586  8.096894  0.886878
 Al  4.623393 11.722464  0.817654
 Al  8.202174 11.718967  0.870537
 Al 11.820782 11.721009  0.885849
 Al  4.561804  0.884778  0.883823
 Al  8.207582  0.883192  0.869423
 Al 11.799453  0.892767  0.865477
 Al  4.546831  4.504892  4.543979
 Al  8.205314  4.486635  4.501389
 Al 11.800526  4.496836  4.496974
 Al  4.616677  7.970559  4.556354
 Al  8.190282  8.100531  4.504629
 Al 11.819699  8.097357  4.491323
 Al  4.737733 11.828075  4.511994
 Al  8.202826 11.719280  4.500748
 Al 11.806089 11.719441  4.503373
 Al  4.629084  0.857148  4.424402
 Al  8.215164  0.896317  4.497476
 Al 11.815751  0.884578  4.503464
 Al  4.554675  4.498965  8.064225
 Al  8.189153  4.509131  8.121757
 Al 11.820696  4.496491  8.118211
 Al  4.535654  8.096143  8.073258
 Al  8.188994  8.100570  8.122286
 Al 11.836485  8.097579  8.124060
 Al  4.631172 11.732635  8.178695
 Al  8.205678 11.708566  8.136545
 Al 11.822006 11.723270  8.117584
 Al  4.663440  0.875905  8.208395
 Al  8.200730  0.882485  8.128329
 Al 11.801427  0.884933  8.123371
 Al  4.564783  4.495964 11.738942
 Al  8.182326  4.505647 11.729913
 Al 11.820790  4.497222 11.728432
 Al  4.514526  8.098129 11.727626
 Al  8.176868  8.104174 11.729735
 Al 11.866160  8.099752 11.728583
 Al  4.541295 11.713157 11.738835
 Al  8.205802 11.710699 11.734522
 Al 11.826736 11.711503 11.723935
 Al  4.567074  0.889775 11.731345
 Al  8.200544  0.881516 11.742847
 Al 11.817007  0.892537 11.726879
 Al  0.950359  2.689964 13.541370
 Al  0.941603 13.552993 13.538463
 Al  0.952138  9.990804 13.653421
 Al  0.960882  9.988934  9.840306
 Al  0.977444  6.194178  9.817337
 Al  0.962970  8.019531 11.809819
 Al  0.835715  0.887195  4.411376
 Al  2.685722  0.865488  6.384094
 Al  2.601864 11.843858  6.352419
 Al  2.592041  9.808662  4.489987
 Al  0.958830  6.264140  6.289538
 Al  2.603604 11.818804  2.647259
 Ni  4.554356  6.275046  2.711588
 Ni  6.366457  4.481830  2.700990
 Ni  6.361841  6.304140  0.896914
 Ni  8.186721  6.297945  2.685766
 Ni 10.002895  4.497210  2.687074
 Ni  9.998033  6.299787  0.877476
 Ni 11.811242  6.291265  2.681963
 Ni 13.626429  4.486848  2.687790
 Ni 13.632798  6.290416  0.895099
 Ni  4.508570  9.992254  2.813764
 Ni  6.356853  8.112267  2.707871
 Ni  6.358917  9.904971  0.899242
 Ni  8.190113  9.904463  2.688351
 Ni 10.003865  8.101450  2.691817
 Ni 10.016482  9.909577  0.879015
 Ni 11.812886  9.908024  2.708938
 Ni 13.613467  8.088559  2.686120
 Ni 13.599807  9.907104  0.905278
 Ni  4.570062 13.489689  2.673600
 Ni  6.404221 11.727361  2.673618
 Ni  6.381569 13.541107  0.869414
 Ni  8.208120 13.539833  2.679920
 Ni 10.009160 11.718721  2.688356
 Ni 10.016148 13.533116  0.872913
 Ni 11.801165 13.533336  2.692345
 Ni 13.604080 11.728042  2.688588
 Ni 13.598356 13.548281  0.891762
 Ni  4.551327  2.688875  2.704157
 Ni  6.401706  0.883213  2.663362
 Ni  6.370766  2.686344  0.883813
 Ni  8.195198  2.692598  2.688502
 Ni 10.013534  0.886221  2.686430
 Ni 10.007925  2.698402  0.874050
 Ni 11.801968  2.701344  2.689762
 Ni 13.567701  0.895836  2.652647
 Ni 13.625424  2.698025  0.898097
 Ni  2.764149  6.269111  8.072760
 Ni  6.374133  4.495883  6.308392
 Ni  6.393377  6.264777  4.515369
 Ni  8.176572  6.303283  6.315521
 Ni 10.005830  4.505087  6.316288
 Ni  9.999874  6.300851  4.502436
 Ni 11.827341  6.296388  6.299117
 Ni 13.626648  4.461228  6.303726
 Ni 13.609353  6.261612  4.482395
 Ni  4.512361  9.986531  6.201382
 Ni  6.359832  8.100419  6.316389
 Ni  6.390627  9.909347  4.507886
 Ni  8.196638  9.904726  6.323475
 Ni 10.015840  8.098772  6.313965
 Ni  9.999039  9.903082  4.503663
 Ni 11.818949  9.910765  6.296991
 Ni 13.618176  8.112499  6.295872
 Ni 13.630517  9.914367  4.497613
 Ni  4.581184 13.557949  6.331643
 Ni  6.411548 11.729528  6.333522
 Ni  6.432245 13.566867  4.496230
 Ni  8.208472 13.534772  6.320354
 Ni 10.008402 11.714937  6.317604
 Ni 10.009656 13.535919  4.501650
 Ni 11.813346 13.533355  6.318385
 Ni 13.612565 11.728594  6.312705
 Ni 13.581907 13.527900  4.496583
 Ni  4.567269  2.627029  6.306802
 Ni  6.405007  0.881555  6.315732
 Ni  6.376377  2.690130  4.499004
 Ni  8.197446  2.691094  6.314007
 Ni 10.011162  0.883132  6.315956
 Ni 10.009127  2.692737  4.503712
 Ni 11.808233  2.694733  6.315928
 Ni 13.591177  0.901903  6.324079
 Ni 13.599449  2.712450  4.485668
 Ni  4.525137  6.295236  9.896984
 Ni  6.356874  4.504270  9.916103
 Ni  6.342274  6.302141  8.092764
 Ni  8.178406  6.307852  9.930999
 Ni 10.006411  4.508157  9.924349
 Ni 10.014956  6.306887  8.123539
 Ni 11.851831  6.298274  9.931071
 Ni 13.628126  4.462479  9.910677
 Ni 13.631412  6.288336  8.094514
 Ni  4.515103  9.904658  9.924124
 Ni  6.339392  8.103712  9.912327
 Ni  6.350578  9.897972  8.109425
 Ni  8.184547  9.898711  9.925828
 Ni 10.020589  8.099825  9.929378
 Ni 10.022467  9.898216  8.127122
 Ni 11.859452  9.899697  9.929178
 Ni 13.719652  8.092553  9.915090
 Ni 13.617315  9.915356  8.094637
 Ni  4.575240 13.541535  9.942113
 Ni  6.381856 11.708417  9.953427
 Ni  6.403511 13.529544  8.135265
 Ni  8.200962 13.522309  9.938220
 Ni 10.022043 11.706760  9.929887
 Ni 10.006925 13.528639  8.128603
 Ni 11.806513 13.547641  9.923323
 Ni 13.608526 11.753623  9.934615
 Ni 13.609125 13.556127  8.124209
 Ni  4.575656  2.687502  9.920712
 Ni  6.414216  0.880942  9.958020
 Ni  6.385181  2.702517  8.118932
 Ni  8.190025  2.702957  9.929335
 Ni  9.996259  0.884839  9.932038
 Ni  9.997980  2.700078  8.122216
 Ni 11.808425  2.685432  9.917488
 Ni 13.609964  0.890474  9.934560
 Ni 13.622614  2.682663  8.117561
 Ni  4.551160  6.304420 13.563761
 Ni  6.368982  4.497747 13.544988
 Ni  6.348701  6.307659 11.731895
 Ni  8.179990  6.307486 13.538062
 Ni 10.002801  4.501548 13.534422
 Ni 10.012810  6.308336 11.728867
 Ni 11.822939  6.299229 13.545892
 Ni 13.635989  4.511674 13.545072
 Ni 13.659812  6.272465 11.732776
 Ni  4.525753  9.895514 13.544959
 Ni  6.353288  8.108860 13.550100
 Ni  6.352098  9.898698 11.732816
 Ni  8.188344  9.903868 13.538298
 Ni 10.009135  8.103765 13.531879
 Ni 10.022961  9.897297 11.727370
 Ni 11.841946  9.893134 13.533103
 Ni 13.656956  8.083603 13.569484
 Ni 13.713868  9.905763 11.735871
 Ni  4.545917 13.548299 13.530133
 Ni  6.380187 11.714878 13.519315
 Ni  6.377873 13.529525 11.741133
 Ni  8.198990 13.529425 13.535072
 Ni 10.023309 11.711868 13.532932
 Ni 10.016123 13.529590 11.732616
 Ni 11.819439 13.540036 13.529171
 Ni 13.597370 11.736927 13.519314
 Ni 13.619225 13.549695 11.711087
 Ni  4.544149  2.690396 13.541182
 Ni  6.374749  0.881427 13.538465
 Ni  6.374992  2.697428 11.735494
 Ni  8.189586  2.696154 13.537440
 Ni 10.014177  0.887815 13.531018
 Ni 10.007237  2.700477 11.730893
 Ni 11.831325  2.705100 13.531832
 Ni 13.621122  0.886987 13.538822
 Ni 13.631904  2.695246 11.710385
 Ni  0.943751  6.281070  2.704361
 Ni  2.734469  4.481219  2.705327
 Ni  0.958337  8.081360  0.920837
 Ni  0.956192  4.492221  0.903440
 Ni  0.923995  9.909802  2.665448
 Ni  2.740576  8.077089  2.714043
 Ni  2.765084  9.935411  0.946142
 Ni  0.873957 11.761753  0.889573
 Ni  0.889897 13.567199  2.689712
 Ni  0.924865 11.731636  4.497948
 Ni  2.737325 13.546263  0.883687
 Ni  0.936367  0.882379  0.906733
 Ni  0.946391  2.686580  2.673967
 Ni  2.741540  0.858126  2.666528
 Ni  2.734387  2.685420  0.907637
 Ni  2.735770  4.410691  6.295884
 Ni  2.726509  6.277617  4.493631
 Ni  0.953307  4.455370  4.479854
 Ni  0.935685  9.926927  6.316280
 Ni  2.756328  8.111627  6.296694
 Ni  0.890800  8.058654  4.479547
 Ni  0.884914 13.600430  6.298725
 Ni  2.747085 13.567388  4.501535
 Ni  0.934518  2.651224  6.290081
 Ni  2.737035  2.612465  4.503011
 Ni  2.769137  4.453484  9.912885
 Ni  0.959760  4.421371  8.086230
 Ni  2.672711  8.097348  9.905950
 Ni  2.768718  9.941823  8.060234
 Ni  0.957282  8.125055  8.047137
 Ni  0.944750 13.548769  9.916745
 Ni  2.745315 11.754155  9.922873
 Ni  2.743075 13.555107  8.156001
 Ni  0.898931 11.782116  8.124121
 Ni  0.956843  2.689309  9.922462
 Ni  2.747670  0.889445  9.936325
 Ni  2.753120  2.654118  8.122262
 Ni  0.920509  0.886127  8.158880
 Ni  0.960821  6.257521 13.578287
 Ni  2.746940  4.501228 13.550133
 Ni  2.732900  6.269126 11.737811
 Ni  0.959014  4.478915 11.728447
 Ni  2.741819  6.282224  0.903193
 Ni  2.663794  9.907457 11.740485
 Ni  2.722932  8.089323 13.581402
 Ni  2.739783 11.737827 13.551886
 Ni  2.740143 13.548057 11.708272
 Ni  0.951229 11.776206 11.712896
 Ni  0.948411  0.885638 11.694442
 Ni  2.736003  0.892308 13.532735
 Ni  2.747081  2.693337 11.714748
%endblock positions_abs_product 
%block positions_abs_intermediate 
     ang 
Al  4.555894  4.479339  0.888950
 Al  8.183791  4.497951  0.884931
 Al 11.816283  4.499203  0.879435
 Al  4.546912  8.120320  0.926325
 Al  8.187726  8.104906  0.888752
 Al 11.806666  8.095673  0.886943
 Al  4.626571 11.725779  0.818777
 Al  8.202671 11.717927  0.871583
 Al 11.817618 11.721088  0.886122
 Al  4.563637  0.883704  0.883360
 Al  8.209191  0.884214  0.869901
 Al 11.797437  0.894482  0.864991
 Al  4.544439  4.480377  4.523428
 Al  8.199020  4.488472  4.504886
 Al 11.801134  4.499212  4.501824
 Al  4.619004  7.998897  4.520314
 Al  8.183695  8.099021  4.507133
 Al 11.820717  8.095567  4.495202
 Al  4.736145 11.830340  4.511954
 Al  8.202415 11.718740  4.501764
 Al 11.804448 11.716735  4.505726
 Al  4.630195  0.855354  4.425978
 Al  8.216548  0.895202  4.499229
 Al 11.815853  0.885822  4.506467
 Al  4.531626  4.499330  8.084420
 Al  8.184060  4.509701  8.121017
 Al 11.822775  4.501197  8.120943
 Al  4.514800  8.090891  8.088779
 Al  8.179375  8.099355  8.120687
 Al 11.835831  8.094642  8.126981
 Al  4.631215 11.735206  8.180495
 Al  8.204682 11.707126  8.136554
 Al 11.819578 11.719932  8.118411
 Al  4.665287  0.871027  8.210609
 Al  8.202910  0.882643  8.128922
 Al 11.800437  0.886195  8.125382
 Al  4.565688  4.492634 11.743319
 Al  8.180685  4.505559 11.728502
 Al 11.819532  4.499608 11.725306
 Al  4.518210  8.100823 11.734781
 Al  8.173747  8.103427 11.727513
 Al 11.863994  8.098485 11.726096
 Al  4.545565 11.714244 11.742405
 Al  8.206409 11.710650 11.734769
 Al 11.822598 11.709599 11.724082
 Al  4.569744  0.888298 11.730935
 Al  8.205593  0.882012 11.744338
 Al 11.815535  0.893687 11.727541
 Al  0.946397  2.690276 13.540116
 Al  0.940858 13.553869 13.538583
 Al  0.952250  9.991422 13.654117
 Al  0.957713  9.993428  9.845362
 Al  1.030104  6.204377  9.777843
 Al  0.963417  8.016454 11.807947
 Al  0.832696  0.885799  4.413696
 Al  2.681868  0.862991  6.384448
 Al  2.601238 11.843674  6.352013
 Al  2.585157  9.814427  4.486109
 Al  0.986601  6.263881  6.320456
 Al  2.601224 11.821895  2.646214
 Ni  4.550950  6.274648  2.698084
 Ni  6.366481  4.481350  2.698706
 Ni  6.363946  6.302804  0.896954
 Ni  8.184637  6.297262  2.692788
 Ni 10.002853  4.499249  2.690699
 Ni  9.996276  6.300126  0.879670
 Ni 11.809425  6.292707  2.684035
 Ni 13.626683  4.487468  2.689638
 Ni 13.632267  6.289783  0.893854
 Ni  4.505884  9.999794  2.810441
 Ni  6.359277  8.112784  2.702628
 Ni  6.360297  9.907599  0.900394
 Ni  8.190721  9.904535  2.689508
 Ni 10.003629  8.101248  2.695732
 Ni 10.014968  9.907379  0.880500
 Ni 11.811649  9.905868  2.709477
 Ni 13.614349  8.086276  2.687780
 Ni 13.595824  9.906499  0.903249
 Ni  4.570018 13.491162  2.672947
 Ni  6.405264 11.728074  2.673593
 Ni  6.384843 13.540859  0.870914
 Ni  8.208681 13.538982  2.681223
 Ni 10.007484 11.717104  2.690679
 Ni 10.015259 13.532329  0.873584
 Ni 11.799770 13.534562  2.693368
 Ni 13.601805 11.728345  2.688965
 Ni 13.597503 13.551308  0.891991
 Ni  4.550442  2.682552  2.699205
 Ni  6.403276  0.881470  2.666224
 Ni  6.373318  2.685906  0.883315
 Ni  8.197090  2.693584  2.689071
 Ni 10.014071  0.885972  2.688374
 Ni 10.008559  2.700560  0.874997
 Ni 11.801228  2.702524  2.691897
 Ni 13.564244  0.898328  2.651194
 Ni 13.624094  2.698791  0.896916
 Ni  3.631687  6.271692  7.189432
 Ni  6.362975  4.489417  6.310631
 Ni  6.382670  6.267052  4.509865
 Ni  8.175507  6.303132  6.316734
 Ni 10.006578  4.506229  6.318115
 Ni 10.001301  6.302066  4.506349
 Ni 11.831280  6.296611  6.306024
 Ni 13.633019  4.463297  6.310157
 Ni 13.613669  6.260385  4.489141
 Ni  4.504986  9.999067  6.202201
 Ni  6.344597  8.104689  6.314832
 Ni  6.387383  9.912724  4.507658
 Ni  8.190800  9.900078  6.323378
 Ni 10.014482  8.098064  6.315845
 Ni  9.997551  9.902427  4.505285
 Ni 11.817153  9.907482  6.298629
 Ni 13.623388  8.109708  6.300553
 Ni 13.631466  9.910924  4.498674
 Ni  4.579771 13.557444  6.333008
 Ni  6.411281 11.730422  6.333902
 Ni  6.434282 13.569340  4.497337
 Ni  8.210571 13.533716  6.320848
 Ni 10.006794 11.712785  6.318279
 Ni 10.009796 13.534128  4.503832
 Ni 11.810220 13.532279  6.320029
 Ni 13.612022 11.728698  6.313857
 Ni 13.578309 13.527059  4.498121
 Ni  4.563382  2.613387  6.311344
 Ni  6.407197  0.876893  6.316040
 Ni  6.376448  2.684730  4.501147
 Ni  8.196407  2.694876  6.315823
 Ni 10.011423  0.883906  6.318103
 Ni 10.009773  2.694103  4.505758
 Ni 11.807693  2.697455  6.318513
 Ni 13.590311  0.901159  6.327354
 Ni 13.599481  2.716481  4.489147
 Ni  4.506970  6.294333  9.905583
 Ni  6.352485  4.502515  9.916216
 Ni  6.324757  6.300937  8.100808
 Ni  8.174054  6.307641  9.925817
 Ni 10.006948  4.509045  9.924042
 Ni 10.011849  6.306607  8.123501
 Ni 11.852573  6.299802  9.928974
 Ni 13.639923  4.471018  9.909522
 Ni 13.652461  6.290125  8.098746
 Ni  4.517388  9.906215  9.927123
 Ni  6.332762  8.103601  9.912881
 Ni  6.345174  9.901113  8.108121
 Ni  8.181968  9.897773  9.926113
 Ni 10.016870  8.099641  9.927945
 Ni 10.020076  9.897526  8.127337
 Ni 11.857179  9.895530  9.930558
 Ni 13.728413  8.088385  9.914363
 Ni 13.613588  9.915679  8.097079
 Ni  4.575828 13.539758  9.944151
 Ni  6.382508 11.710434  9.952346
 Ni  6.404501 13.528213  8.135129
 Ni  8.204115 13.522817  9.938364
 Ni 10.021376 11.705408  9.929235
 Ni 10.008273 13.528224  8.127986
 Ni 11.803809 13.546043  9.924548
 Ni 13.605597 11.751824  9.937046
 Ni 13.607852 13.554668  8.125789
 Ni  4.575715  2.683759  9.923824
 Ni  6.415615  0.879023  9.957793
 Ni  6.383038  2.698429  8.120063
 Ni  8.192864  2.703012  9.930208
 Ni  9.998979  0.886324  9.931592
 Ni 10.000271  2.700956  8.123683
 Ni 11.808868  2.689536  9.918726
 Ni 13.608885  0.887709  9.936043
 Ni 13.620541  2.680569  8.121767
 Ni  4.549494  6.303279 13.565870
 Ni  6.369248  4.497368 13.546621
 Ni  6.347260  6.307097 11.732300
 Ni  8.179541  6.306980 13.537477
 Ni 10.002216  4.503211 13.534116
 Ni 10.010322  6.308078 11.726722
 Ni 11.821511  6.300041 13.542958
 Ni 13.636164  4.512943 13.542021
 Ni 13.662251  6.271248 11.727549
 Ni  4.527030  9.897634 13.548703
 Ni  6.354273  8.108476 13.552653
 Ni  6.352605  9.900167 11.734012
 Ni  8.187527  9.902575 13.538543
 Ni 10.006661  8.102166 13.531639
 Ni 10.019415  9.896038 11.726944
 Ni 11.838675  9.891063 13.532522
 Ni 13.654872  8.081602 13.569096
 Ni 13.713401  9.902740 11.738179
 Ni  4.549904 13.550171 13.530727
 Ni  6.382703 11.714848 13.522465
 Ni  6.382088 13.529526 11.742068
 Ni  8.201417 13.529968 13.536240
 Ni 10.021798 11.711491 13.534148
 Ni 10.016500 13.528982 11.733879
 Ni 11.817390 13.540181 13.528864
 Ni 13.594107 11.736205 13.518956
 Ni 13.617998 13.548389 11.711711
 Ni  4.546749  2.687637 13.542039
 Ni  6.377501  0.882330 13.538864
 Ni  6.376256  2.695328 11.736596
 Ni  8.192077  2.697249 13.537835
 Ni 10.013999  0.888686 13.531157
 Ni 10.009037  2.702366 11.731108
 Ni 11.831536  2.707634 13.530407
 Ni 13.621012  0.888369 13.536887
 Ni 13.633008  2.697587 11.709059
 Ni  0.945658  6.280424  2.707024
 Ni  2.733233  4.478020  2.702427
 Ni  0.955681  8.081058  0.918799
 Ni  0.954030  4.493204  0.902518
 Ni  0.920980  9.910745  2.662226
 Ni  2.737166  8.079390  2.710661
 Ni  2.763853  9.938149  0.944688
 Ni  0.871961 11.764012  0.887695
 Ni  0.887005 13.567265  2.690123
 Ni  0.924006 11.733000  4.497312
 Ni  2.738966 13.550629  0.883162
 Ni  0.936689  0.882904  0.907419
 Ni  0.945600  2.687481  2.674050
 Ni  2.742604  0.857600  2.665558
 Ni  2.732656  2.683053  0.904922
 Ni  2.737546  4.405773  6.296493
 Ni  2.728893  6.277667  4.495706
 Ni  0.955617  4.456942  4.484518
 Ni  0.934905  9.928130  6.317908
 Ni  2.756172  8.114941  6.293350
 Ni  0.889825  8.055136  4.484374
 Ni  0.883208 13.599551  6.299112
 Ni  2.745771 13.567494  4.503660
 Ni  0.934922  2.649904  6.292148
 Ni  2.734286  2.603836  4.500973
 Ni  2.767060  4.440472  9.921882
 Ni  0.971463  4.411378  8.090582
 Ni  2.675605  8.115248  9.918970
 Ni  2.769598  9.937779  8.065609
 Ni  0.969001  8.135134  8.048654
 Ni  0.945028 13.546070  9.919664
 Ni  2.747028 11.752458  9.925848
 Ni  2.742881 13.552564  8.156994
 Ni  0.898839 11.782244  8.125570
 Ni  0.958421  2.684899  9.926407
 Ni  2.748685  0.886660  9.937099
 Ni  2.754216  2.654188  8.125629
 Ni  0.919378  0.884245  8.160387
 Ni  0.960442  6.257095 13.575566
 Ni  2.746917  4.500553 13.548430
 Ni  2.735522  6.269554 11.733748
 Ni  0.961673  4.483175 11.724473
 Ni  2.739418  6.281390  0.900802
 Ni  2.668228  9.915424 11.751652
 Ni  2.723600  8.089218 13.581842
 Ni  2.742987 11.742750 13.556019
 Ni  2.743297 13.546415 11.709030
 Ni  0.951432 11.775339 11.717204
 Ni  0.948958  0.883530 11.696463
 Ni  2.738028  0.890544 13.531843
 Ni  2.747211  2.686662 11.720036
%endblock positions_abs_intermediate 
     kpoint_mp_grid 1 1 1 
     fix_com : false