#######################################################
#CASTEP cell file: /home/u2093113/Documents/kART/CASTEP/castep.cell
#Created using the Atomic Simulation Environment (ASE)#
#######################################################

%BLOCK LATTICE_CART
14.464828  0.000000  0.000000
 0.000000 14.464828  0.000000
 0.000000  0.000000 14.464828
%ENDBLOCK LATTICE_CART

%BLOCK POSITIONS_ABS
Al  8.232348  4.447925  0.921827
Al 11.856501  4.460764  0.915449
Al  8.229811  8.092885  0.963863
Al 11.871423  8.087853  0.922495
Al  8.313818 11.701319  0.841277
Al 11.884994 11.692994  0.894777
Al  8.254898  0.859028  0.916629
Al 11.860631  0.853860  0.896136
Al  8.216433  4.449683  4.526170
Al 11.860146  4.475205  4.506783
Al  8.304999  7.994174  4.439758
Al 11.870163  8.078532  4.513202
Al  8.396298 11.795050  4.539550
Al 11.871082 11.681897  4.527485
Al  8.303716  0.830915  4.454075
Al 11.879984  0.865172  4.512154
Al  8.245738  4.439263  8.108603
Al 11.842424  4.491080  8.125750
Al  8.248192  8.080391  8.161597
Al 11.833255  8.073933  8.121009
Al  8.292612 11.687845  8.189329
Al 11.892637 11.667689  8.141026
Al  8.350534  0.842624  8.236431
Al 11.834681  0.851503  8.140121
Al  8.264957  4.460947 11.778831
Al 11.819586  4.486398 11.760786
Al  8.213917  8.076024 11.785323
Al 11.845752  8.080535 11.765244
Al  8.234407 11.692444 11.775904
Al 11.841006 11.671088 11.770068
Al  8.254336  0.850227 11.743865
Al 11.877541  0.843487 11.766855
Al  4.759929  2.651062 13.539405
Al  0.823367  0.872973 11.733657
Al  2.801942  2.759714 11.624822
Al  4.666734 13.549465 13.621228
Al  2.783466 13.417674 11.666193
Al  4.607568  9.991573 13.689931
Al  0.985160  9.881434 13.542198
Al  2.857361  2.685207  8.260222
Al  0.867184 11.678647  8.268820
Al  4.737250  9.964910  9.953587
Al  2.781400  9.699099  8.163896
Al  4.777933  6.169920  9.887441
Al  4.698385  8.034554 11.875139
Al  2.883864  6.257095  7.895700
Al  0.841872  6.266884  9.921021
Al  4.555346  0.856055  4.522941
Al  6.379139  0.847007  6.442398
Al  2.642447  0.781907  2.687052
Al  0.908540  2.660082  6.269969
Al  6.253670 11.790217  6.375664
Al  0.901220 13.643946  6.280769
Al  2.900261 11.702640  6.226501
Al  6.232931  9.819864  4.429685
Al  6.089719  7.775104  6.356189
Al  2.835458  6.160024  4.622389
Al  2.698864  2.720656  0.882696
Al  6.287767 11.842441  2.631118
Al  2.762632 11.730309  2.695122
Al  2.796698  6.174658  0.819528
Al  2.740912  6.163848 11.932803
Al  2.757591  8.190971  2.679082
Ni  8.202256  6.234095  2.701526
Ni 10.048341  4.457017  2.719499
Ni 10.049530  6.272730  0.935832
Ni 11.873860  6.274916  2.718590
Ni 13.673499  4.480214  2.703269
Ni 13.655790  6.287734  0.921606
Ni  8.183031  9.979949  2.816798
Ni 10.062005  8.085500  2.706223
Ni 10.057325  9.885220  0.932078
Ni 11.875712  9.882398  2.725153
Ni 13.699323  8.078106  2.725464
Ni 13.680366  9.890331  0.920137
Ni  8.251397 13.464037  2.704972
Ni 10.081504 11.694935  2.702505
Ni 10.055558 13.510681  0.900006
Ni 11.867320 13.509681  2.691150
Ni 13.657460 11.691792  2.714646
Ni 13.670355 13.498604  0.885832
Ni  8.228400  2.659995  2.731049
Ni 10.075141  0.851418  2.701947
Ni 10.043249  2.657846  0.908543
Ni 11.857855  2.662673  2.691659
Ni 13.680930  0.858466  2.684122
Ni 13.671058  2.660968  0.899059
Ni  6.487492  6.228553  8.146531
Ni 10.038949  4.476190  6.312263
Ni 10.052738  6.251937  4.499991
Ni 11.837636  6.290521  6.295973
Ni 13.663598  4.498990  6.306832
Ni 13.690754  6.279983  4.506249
Ni  8.110206  9.880421  6.159711
Ni 10.012304  8.088826  6.305909
Ni 10.060667  9.882112  4.517969
Ni 11.859599  9.862295  6.330342
Ni 13.691477  8.078577  6.314423
Ni 13.692521  9.887758  4.535214
Ni  8.236448 13.521279  6.359646
Ni 10.062476 11.677442  6.350858
Ni 10.105507 13.529438  4.527698
Ni 11.878942 13.482379  6.337815
Ni 13.703352 11.681200  6.333580
Ni 13.647021 13.507654  4.491387
Ni  8.230201  2.596740  6.329668
Ni 10.073553  0.842025  6.329674
Ni 10.055128  2.659619  4.526149
Ni 11.856676  2.693141  6.327052
Ni 13.605141  0.881854  6.348790
Ni 13.631790  2.673470  4.474004
Ni  8.227916  6.260154  9.965468
Ni 10.040856  4.478549  9.942245
Ni 10.017414  6.279282  8.121102
Ni 11.853961  6.285041  9.940293
Ni 13.631950  4.449133  9.936086
Ni 13.630173  6.277159  8.079757
Ni  8.201363  9.884102  9.961267
Ni 10.025821  8.078099  9.956093
Ni 10.006103  9.872309  8.113008
Ni 11.824308  9.869807  9.934999
Ni 13.646845  8.100747  9.936778
Ni 13.677360  9.839358  8.136695
Ni  8.258168 13.501579  9.960113
Ni 10.051704 11.672112  9.962992
Ni 10.071084 13.480276  8.141669
Ni 11.851067 13.484897  9.954585
Ni 13.631768 11.659025  9.995363
Ni 13.660209 13.522466  8.160074
Ni  8.267219  2.653257  9.944155
Ni 10.087196  0.843622  9.977267
Ni 10.061543  2.670360  8.126401
Ni 11.832285  2.668633  9.943871
Ni 13.628840  0.871775  9.916285
Ni 13.640408  2.678164  8.146700
Ni  8.242397  6.279569 13.616058
Ni 10.041723  4.466353 13.589222
Ni 10.034759  6.286359 11.772840
Ni 11.831819  6.270722 13.592334
Ni 13.648707  4.478445 13.569980
Ni 13.624286  6.280331 11.788939
Ni  8.230164  9.870427 13.597184
Ni 10.044240  8.084269 13.596563
Ni 10.029557  9.870932 11.770270
Ni 11.864183  9.879648 13.571809
Ni 13.651738  8.065203 13.575027
Ni 13.651112  9.859506 11.736887
Ni  8.243763 13.519586 13.550765
Ni 10.063202 11.684828 13.558374
Ni 10.057057 13.496403 11.762397
Ni 11.846881 13.502012 13.563660
Ni 13.671678 11.707714 13.534935
Ni 13.640144 13.474455 11.743097
Ni  8.233808  2.657351 13.572755
Ni 10.050296  0.852705 13.563362
Ni 10.052450  2.660689 11.766400
Ni 11.850249  2.667894 13.572695
Ni 13.636340  0.843202 13.575253
Ni 13.603872  2.702630 11.751111
Ni  1.040889  6.283344  2.715879
Ni  2.795236  4.446352  2.718296
Ni  0.951574  4.488106  0.891320
Ni  4.546702  6.256048  2.718507
Ni  6.373535  4.425846  2.717164
Ni  4.586189  8.042216  0.918133
Ni  4.632607  4.410706  0.913599
Ni  0.980905  8.053399  0.910589
Ni  0.960544  9.911628  2.708292
Ni  4.592643  9.916524  2.630285
Ni  6.371379  8.048419  2.701315
Ni  6.434567  9.927349  0.953635
Ni  2.745811  9.915742  0.879003
Ni  0.938310 13.481428  2.712267
Ni  4.536366 11.765301  0.894823
Ni  2.747886 13.537890  0.851408
Ni  4.559634 13.608795  2.689778
Ni  4.612361 11.750414  4.463819
Ni  6.437184 13.551932  0.902393
Ni  0.974920  2.676002  2.692804
Ni  4.565379  0.909243  0.899277
Ni  0.985657  0.851933  0.843254
Ni  4.577101  2.610552  2.705277
Ni  6.418573  0.835109  2.694218
Ni  6.424065  2.632471  0.948514
Ni  2.779872  0.895506 13.466607
Ni  0.995305  6.248777  6.294907
Ni  2.801963  4.344957  6.330311
Ni  0.974727  4.456148  4.488556
Ni  6.399148  4.468725  6.313573
Ni  6.342343  6.244200  4.469804
Ni  4.609356  4.400763  4.516368
Ni  1.052778  9.929796  6.361295
Ni  2.824307  8.082630  6.275370
Ni  2.811132  9.912792  4.501843
Ni  1.032120  8.086398  4.519362
Ni  4.635318  9.837040  6.305444
Ni  8.196408  6.306254  6.288054
Ni  4.520476  8.044783  4.455466
Ni  0.927799  0.886887  4.491979
Ni  0.978617 11.699830  4.539416
Ni  4.560881 13.583954  6.352673
Ni  6.411163 13.547494  4.532999
Ni  2.753678 13.543907  4.530526
Ni  2.757184  0.926512  6.383819
Ni  2.787547  2.642360  4.474031
Ni  4.634333  2.656577  6.325673
Ni  6.406922  2.588888  4.533522
Ni  0.971641  4.468364  8.115507
Ni  6.469382  4.402993  9.964983
Ni  4.661118  4.462443  8.102540
Ni  1.020112  9.800692  9.964224
Ni  0.993513  8.014233  8.114422
Ni  2.844252  7.865368 10.061590
Ni  6.385779  8.075454  9.972346
Ni  6.460766  9.875783  8.081488
Ni  4.586088  8.077798  8.218086
Ni  0.958277 13.520670  9.960618
Ni  2.784338 11.623225  9.904883
Ni  2.701613 13.477304  8.090454
Ni  4.599810 13.483595  9.912102
Ni  6.432323 11.729830  9.957338
Ni  6.413805 13.504353  8.177373
Ni  4.522732 11.684501  8.154026
Ni  0.957415  2.710086  9.950953
Ni  2.765235  0.830107 10.004588
Ni  0.978674  0.906847  8.196072
Ni  4.657062  2.674427  9.955397
Ni  6.412141  0.847692  9.942961
Ni  6.424166  2.643083  8.146062
Ni  4.572422  0.835138  8.195593
Ni  0.936015  6.270451 13.586420
Ni  2.812885  4.345807 13.548702
Ni  2.794842  4.665050  9.911333
Ni  0.939216  4.474959 11.752767
Ni  4.643494  6.211657 13.583805
Ni  6.442171  4.482200 13.577861
Ni  6.450945  6.252306 11.797434
Ni  4.664003  4.458363 11.753486
Ni  0.969329 11.724447  0.883452
Ni  2.817226  8.086177 13.557277
Ni  2.887760  9.862163 11.719978
Ni  0.984228  8.047387 11.768163
Ni  6.389348  6.246203  0.933064
Ni  6.391844  9.884783 11.817783
Ni  6.411468  8.067735 13.639623
Ni  0.987223 13.513034 13.505648
Ni  2.766826 11.736714 13.536917
Ni  0.985228 11.650200 11.705609
Ni  6.434731 11.714452 13.585322
Ni  6.421453 13.510539 11.728196
Ni  4.639366 11.746719 11.770728
Ni  0.940786  2.663127 13.518444
Ni  4.634762  0.838459 11.720296
Ni  6.453005  0.849515 13.545578
Ni  6.472340  2.647973 11.726019
%ENDBLOCK POSITIONS_ABS

