#######################################################
#CASTEP cell file: /home/u2093113/Documents/kART/CASTEP/castep.cell
#Created using the Atomic Simulation Environment (ASE)#
#######################################################

%BLOCK LATTICE_CART
14.464828  0.000000  0.000000
 0.000000 14.464828  0.000000
 0.000000  0.000000 14.464828
%ENDBLOCK LATTICE_CART

%BLOCK POSITIONS_ABS
Al  8.232764  4.453494  0.931786
Al 11.849485  4.456430  0.920094
Al  8.231047  8.102130  0.971155
Al 11.862135  8.096853  0.929068
Al  8.305772 11.698060  0.859124
Al 11.879217 11.698229  0.906034
Al  8.244349  0.853692  0.929261
Al 11.856725  0.850853  0.906260
Al  8.224155  4.437801  4.519671
Al 11.855534  4.474598  4.513450
Al  8.300567  7.997644  4.502139
Al 11.863103  8.081265  4.523333
Al  8.395106 11.801163  4.552237
Al 11.872986 11.687909  4.536989
Al  8.297717  0.827737  4.462712
Al 11.879132  0.863546  4.519951
Al  8.249113  4.428048  8.129307
Al 11.830473  4.492861  8.139979
Al  8.179119  8.106546  8.082379
Al 11.826569  8.076724  8.133607
Al  8.294123 11.701746  8.198263
Al 11.891213 11.676185  8.152752
Al  8.345764  0.841624  8.244400
Al 11.836525  0.851662  8.151911
Al  8.260664  4.466352 11.784730
Al 11.812124  4.482668 11.772733
Al  8.212116  8.084977 11.791370
Al 11.831216  8.089537 11.771136
Al  8.229722 11.694039 11.779031
Al 11.836508 11.678001 11.779774
Al  8.246703  0.848702 11.756774
Al 11.874270  0.841662 11.778223
Al  4.765756  2.648138 13.552727
Al  0.826507  0.870870 11.746034
Al  2.803899  2.756226 11.640686
Al  4.667771 13.544310 13.638733
Al  2.786110 13.417690 11.673092
Al  4.609961  9.998391 13.696319
Al  0.987562  9.887983 13.555492
Al  2.860233  2.709527  8.261671
Al  0.870392 11.671750  8.276008
Al  4.732457  9.962617  9.963515
Al  2.784495  9.653236  8.166995
Al  4.791574  6.177765  9.902548
Al  4.703672  8.040242 11.885102
Al  2.750718  6.276710  8.030059
Al  0.804838  6.270984  9.967034
Al  4.548776  0.861695  4.536774
Al  6.370717  0.853521  6.451567
Al  2.647286  0.782642  2.701419
Al  0.916925  2.674900  6.279252
Al  6.246864 11.771939  6.383515
Al  0.904444 13.643535  6.288930
Al  2.899484 11.687507  6.245641
Al  6.235206  9.730221  4.550187
Al  4.898134  6.380238  6.304385
Al  2.714540  6.158264  4.526990
Al  2.699745  2.713371  0.886920
Al  6.289280 11.802934  2.676403
Al  2.767096 11.715159  2.717343
Al  2.793201  6.180418  0.820551
Al  2.741349  6.172845 11.950889
Al  2.749504  8.204513  2.676362
Ni  8.227236  6.250278  2.702995
Ni 10.049755  4.457316  2.724819
Ni 10.053022  6.278392  0.940155
Ni 11.866987  6.277495  2.721552
Ni 13.662589  4.474398  2.702866
Ni 13.641091  6.291374  0.918256
Ni  8.175923  9.973436  2.844230
Ni 10.055093  8.092992  2.725367
Ni 10.051315  9.890614  0.944459
Ni 11.871533  9.889192  2.734911
Ni 13.686550  8.084927  2.727144
Ni 13.673486  9.899347  0.927391
Ni  8.243492 13.460215  2.720751
Ni 10.076589 11.697046  2.715871
Ni 10.047797 13.509520  0.912711
Ni 11.865928 13.510792  2.702025
Ni 13.656973 11.696800  2.725391
Ni 13.671008 13.498956  0.897924
Ni  8.227040  2.655535  2.737465
Ni 10.069875  0.847676  2.710192
Ni 10.036881  2.654593  0.917355
Ni 11.853395  2.657887  2.697860
Ni 13.683404  0.856425  2.694104
Ni 13.667961  2.655047  0.905032
Ni  6.526514  6.252066  8.144327
Ni 10.037521  4.470412  6.322752
Ni 10.054236  6.253460  4.509318
Ni 11.832754  6.293916  6.308107
Ni 13.646199  4.492665  6.319995
Ni 13.676360  6.279867  4.507702
Ni  8.158346  9.962522  6.200474
Ni  9.994274  8.087390  6.322278
Ni 10.062862  9.890192  4.530677
Ni 11.853356  9.864250  6.341911
Ni 13.675366  8.083571  6.324980
Ni 13.686551  9.891366  4.544721
Ni  8.233848 13.526789  6.368355
Ni 10.081802 11.700324  6.359798
Ni 10.104912 13.532844  4.536474
Ni 11.888065 13.490928  6.347479
Ni 13.704177 11.679828  6.344527
Ni 13.652686 13.510225  4.502008
Ni  8.238432  2.577858  6.338776
Ni 10.079609  0.838387  6.338305
Ni 10.054901  2.654034  4.531823
Ni 11.850933  2.690656  6.336990
Ni 13.611198  0.887667  6.358084
Ni 13.625598  2.667279  4.484118
Ni  8.226391  6.279002  9.967397
Ni 10.034859  4.480231  9.954388
Ni 10.001431  6.288231  8.130827
Ni 11.844001  6.288858  9.954168
Ni 13.619935  4.442543  9.953468
Ni 13.615086  6.274284  8.098737
Ni  8.197567  9.885640  9.956864
Ni 10.005513  8.086062  9.946666
Ni 10.004753  9.877982  8.122936
Ni 11.816997  9.878265  9.946055
Ni 13.631871  8.112092  9.956317
Ni 13.665046  9.848972  8.149839
Ni  8.253794 13.506699  9.968605
Ni 10.048208 11.679757  9.971180
Ni 10.071602 13.488859  8.152803
Ni 11.851008 13.489252  9.965179
Ni 13.631492 11.664213 10.004757
Ni 13.666190 13.525290  8.169097
Ni  8.263815  2.649381  9.956121
Ni 10.082693  0.842380  9.989554
Ni 10.060754  2.664183  8.138556
Ni 11.826243  2.664908  9.957011
Ni 13.631482  0.873170  9.927507
Ni 13.635276  2.676199  8.159046
Ni  8.243960  6.284924 13.624909
Ni 10.036262  4.465149 13.597681
Ni 10.029859  6.291704 11.779937
Ni 11.821467  6.274736 13.599273
Ni 13.641719  4.475819 13.579544
Ni 13.608017  6.284370 11.811389
Ni  8.227958  9.876397 13.606466
Ni 10.039076  8.092709 13.604148
Ni 10.021873  9.877313 11.775003
Ni 11.857258  9.887585 13.579899
Ni 13.645500  8.075695 13.580053
Ni 13.646917  9.868359 11.749042
Ni  8.237886 13.516892 13.563769
Ni 10.055221 11.688087 13.569273
Ni 10.051003 13.498671 11.773625
Ni 11.842105 13.503897 13.575542
Ni 13.670806 11.712612 13.546488
Ni 13.640312 13.475830 11.754237
Ni  8.227013  2.657308 13.584553
Ni 10.042265  0.851037 13.575423
Ni 10.045227  2.657987 11.778429
Ni 11.844752  2.662701 13.583007
Ni 13.635595  0.839735 13.587046
Ni 13.600684  2.698666 11.764699
Ni  1.007298  6.285592  2.693062
Ni  2.783875  4.441929  2.705858
Ni  0.945551  4.485185  0.889962
Ni  4.545611  6.257698  2.701859
Ni  6.377382  4.426774  2.717678
Ni  4.595798  8.051552  0.929364
Ni  4.632720  4.410707  0.918391
Ni  0.972383  8.063671  0.912338
Ni  0.951985  9.913279  2.716916
Ni  4.610325  9.900568  2.672854
Ni  6.382378  8.059093  2.729559
Ni  6.433378  9.926516  0.963714
Ni  2.753281  9.922816  0.893182
Ni  0.944207 13.479565  2.726766
Ni  4.544095 11.755561  0.921116
Ni  2.753535 13.530797  0.870215
Ni  4.564235 13.592318  2.713158
Ni  4.610902 11.719226  4.491581
Ni  6.433176 13.533734  0.928036
Ni  0.972954  2.672127  2.698099
Ni  4.569049  0.900813  0.918441
Ni  0.988914  0.847338  0.855506
Ni  4.573123  2.619252  2.719245
Ni  6.410809  0.833179  2.708888
Ni  6.422524  2.634144  0.961684
Ni  2.783603  0.891436 13.482199
Ni  0.948114  6.246641  6.307376
Ni  2.816536  4.440437  6.337994
Ni  0.947159  4.446293  4.492968
Ni  6.436846  4.414216  6.321151
Ni  6.401966  6.256085  4.429996
Ni  4.606131  4.451592  4.524152
Ni  1.052867  9.911810  6.375181
Ni  2.823335  7.993964  6.288755
Ni  2.799545  9.889618  4.525806
Ni  1.013728  8.086007  4.524903
Ni  4.590448  9.806854  6.339060
Ni  8.195566  6.259336  6.292346
Ni  4.499611  8.010975  4.467154
Ni  0.936553  0.892792  4.503903
Ni  0.978551 11.693946  4.553787
Ni  4.559447 13.578712  6.364116
Ni  6.401902 13.540305  4.548385
Ni  2.759645 13.535283  4.544678
Ni  2.757629  0.930836  6.393213
Ni  2.787888  2.670131  4.493507
Ni  4.619378  2.669823  6.331053
Ni  6.403284  2.589535  4.540028
Ni  0.958089  4.463023  8.131626
Ni  6.471164  4.409677  9.970939
Ni  4.658469  4.505227  8.109885
Ni  1.017317  9.805422  9.973912
Ni  0.954475  8.021021  8.136117
Ni  2.865158  7.873286 10.065147
Ni  6.389764  8.086485  9.958139
Ni  6.444574  9.915986  8.093999
Ni  4.666249  8.051407  8.154733
Ni  0.960866 13.521070  9.969166
Ni  2.783274 11.619422  9.909554
Ni  2.700096 13.477015  8.097484
Ni  4.595984 13.487541  9.916482
Ni  6.428298 11.736345  9.966880
Ni  6.408735 13.504029  8.180981
Ni  4.517619 11.681420  8.167946
Ni  0.958197  2.711791  9.966279
Ni  2.764443  0.836424 10.009291
Ni  0.983194  0.914263  8.204754
Ni  4.653191  2.686239  9.959281
Ni  6.405256  0.849681  9.949618
Ni  6.419416  2.641168  8.159244
Ni  4.565246  0.843228  8.200711
Ni  0.930191  6.277101 13.595571
Ni  2.814544  4.346093 13.557122
Ni  2.787920  4.670895  9.942428
Ni  0.934441  4.475562 11.772743
Ni  4.647181  6.217146 13.593709
Ni  6.444541  4.489474 13.587936
Ni  6.453629  6.261374 11.806376
Ni  4.666768  4.460801 11.766094
Ni  0.971713 11.725003  0.895848
Ni  2.821311  8.094888 13.569756
Ni  2.888196  9.868057 11.728691
Ni  0.988357  8.056477 11.777104
Ni  6.396212  6.257692  0.943486
Ni  6.393011  9.888152 11.821719
Ni  6.413999  8.072695 13.646337
Ni  0.990607 13.512354 13.518226
Ni  2.772242 11.739770 13.550228
Ni  0.987199 11.651811 11.716784
Ni  6.433851 11.715217 13.593179
Ni  6.417543 13.512184 11.736389
Ni  4.639976 11.751008 11.776396
Ni  0.941545  2.659233 13.528128
Ni  4.632577  0.838967 11.729038
Ni  6.449482  0.843133 13.560807
Ni  6.468932  2.650441 11.731703
%ENDBLOCK POSITIONS_ABS

