#######################################################
#CASTEP cell file: /home/u2093113/Documents/kART/CASTEP/castep.cell
#Created using the Atomic Simulation Environment (ASE)#
#######################################################

%BLOCK LATTICE_CART
14.464828  0.000000  0.000000
 0.000000 14.464828  0.000000
 0.000000  0.000000 14.464828
%ENDBLOCK LATTICE_CART

%BLOCK POSITIONS_ABS
Al  8.232556  4.450710  0.926806
Al 11.852993  4.458597  0.917772
Al  8.230429  8.097507  0.967509
Al 11.866779  8.092353  0.925781
Al  8.309795 11.699689  0.850201
Al 11.882106 11.695612  0.900405
Al  8.249623  0.856360  0.922945
Al 11.858678  0.852357  0.901198
Al  8.220294  4.443742  4.522921
Al 11.857840  4.474901  4.510116
Al  8.302783  7.995909  4.470948
Al 11.866633  8.079898  4.518268
Al  8.395702 11.798107  4.545894
Al 11.872034 11.684903  4.532237
Al  8.300717  0.829326  4.458394
Al 11.879558  0.864359  4.516052
Al  8.247425  4.433656  8.118955
Al 11.836448  4.491970  8.132865
Al  8.213656  8.093468  8.121988
Al 11.829912  8.075329  8.127308
Al  8.293368 11.694796  8.193796
Al 11.891925 11.671937  8.146889
Al  8.348149  0.842124  8.240416
Al 11.835603  0.851583  8.146016
Al  8.262811  4.463650 11.781781
Al 11.815855  4.484533 11.766760
Al  8.213016  8.080500 11.788346
Al 11.838484  8.085036 11.768190
Al  8.232065 11.693242 11.777468
Al 11.838757 11.674544 11.774921
Al  8.250519  0.849464 11.750320
Al 11.875905  0.842575 11.772539
Al  4.762843  2.649600 13.546066
Al  0.824937  0.871921 11.739845
Al  2.802921  2.757970 11.632754
Al  4.667252 13.546888 13.629980
Al  2.784788 13.417682 11.669643
Al  4.608764  9.994982 13.693125
Al  0.986361  9.884708 13.548845
Al  2.858797  2.697367  8.260947
Al  0.868788 11.675199  8.272414
Al  4.734854  9.963764  9.958551
Al  2.782948  9.676168  8.165446
Al  4.784754  6.173843  9.894995
Al  4.701029  8.037398 11.880121
Al  2.817291  6.266902  7.962879
Al  0.823355  6.268934  9.944028
Al  4.552061  0.858875  4.529858
Al  6.374928  0.850264  6.446982
Al  2.644867  0.782274  2.694236
Al  0.912732  2.667491  6.274610
Al  6.250267 11.781078  6.379590
Al  0.902832 13.643741  6.284850
Al  2.899872 11.695074  6.236071
Al  6.234068  9.775043  4.489936
Al  5.493926  7.077671  6.330287
Al  2.774999  6.159144  4.574689
Al  2.699304  2.717013  0.884808
Al  6.288524 11.822688  2.653760
Al  2.764864 11.722734  2.706233
Al  2.794950  6.177538  0.820040
Al  2.741130  6.168346 11.941846
Al  2.753548  8.197742  2.677722
Ni  8.214746  6.242186  2.702260
Ni 10.049048  4.457166  2.722159
Ni 10.051276  6.275561  0.937994
Ni 11.870423  6.276205  2.720071
Ni 13.668044  4.477306  2.703068
Ni 13.648440  6.289554  0.919931
Ni  8.179477  9.976693  2.830514
Ni 10.058549  8.089246  2.715795
Ni 10.054320  9.887917  0.938269
Ni 11.873623  9.885795  2.730032
Ni 13.692937  8.081517  2.726304
Ni 13.676926  9.894839  0.923764
Ni  8.247444 13.462126  2.712862
Ni 10.079046 11.695991  2.709188
Ni 10.051678 13.510101  0.906359
Ni 11.866624 13.510236  2.696587
Ni 13.657216 11.694296  2.720018
Ni 13.670681 13.498780  0.891878
Ni  8.227720  2.657765  2.734257
Ni 10.072508  0.849547  2.706070
Ni 10.040065  2.656219  0.912949
Ni 11.855625  2.660280  2.694759
Ni 13.682167  0.857445  2.689113
Ni 13.669509  2.658008  0.902046
Ni  6.507003  6.240309  8.145429
Ni 10.038235  4.473301  6.317508
Ni 10.053487  6.252698  4.504655
Ni 11.835195  6.292219  6.302040
Ni 13.654898  4.495828  6.313413
Ni 13.683557  6.279925  4.506976
Ni  8.134276  9.921471  6.180093
Ni 10.003289  8.088108  6.314093
Ni 10.061764  9.886152  4.524323
Ni 11.856477  9.863273  6.336127
Ni 13.683421  8.081074  6.319701
Ni 13.689536  9.889562  4.539968
Ni  8.235148 13.524034  6.364000
Ni 10.072139 11.688883  6.355328
Ni 10.105210 13.531141  4.532086
Ni 11.883504 13.486653  6.342647
Ni 13.703764 11.680514  6.339053
Ni 13.649854 13.508940  4.496697
Ni  8.234316  2.587299  6.334222
Ni 10.076581  0.840206  6.333989
Ni 10.055014  2.656826  4.528986
Ni 11.853804  2.691899  6.332021
Ni 13.608169  0.884761  6.353437
Ni 13.628694  2.670374  4.479061
Ni  8.227153  6.269578  9.966432
Ni 10.037857  4.479390  9.948316
Ni 10.009423  6.283756  8.125964
Ni 11.848981  6.286950  9.947230
Ni 13.625943  4.445838  9.944777
Ni 13.622630  6.275722  8.089247
Ni  8.199465  9.884871  9.959066
Ni 10.015667  8.082081  9.951380
Ni 10.005428  9.875146  8.117972
Ni 11.820653  9.874036  9.940527
Ni 13.639358  8.106420  9.946547
Ni 13.671203  9.844165  8.143267
Ni  8.255981 13.504139  9.964359
Ni 10.049956 11.675935  9.967086
Ni 10.071343 13.484567  8.147236
Ni 11.851037 13.487074  9.959882
Ni 13.631630 11.661619 10.000060
Ni 13.663199 13.523878  8.164585
Ni  8.265517  2.651319  9.950138
Ni 10.084944  0.843001  9.983410
Ni 10.061148  2.667272  8.132479
Ni 11.829264  2.666770  9.950441
Ni 13.630161  0.872473  9.921896
Ni 13.637842  2.677182  8.152873
Ni  8.243179  6.282247 13.620484
Ni 10.038993  4.465751 13.593451
Ni 10.032309  6.289032 11.776388
Ni 11.826643  6.272729 13.595803
Ni 13.645213  4.477132 13.574762
Ni 13.616151  6.282350 11.800164
Ni  8.229061  9.873412 13.601825
Ni 10.041658  8.088489 13.600356
Ni 10.025715  9.874122 11.772636
Ni 11.860720  9.883617 13.575854
Ni 13.648619  8.070449 13.577540
Ni 13.649015  9.863932 11.742964
Ni  8.240825 13.518239 13.557267
Ni 10.059212 11.686458 13.563823
Ni 10.054030 13.497537 11.768011
Ni 11.844493 13.502955 13.569601
Ni 13.671242 11.710163 13.540711
Ni 13.640228 13.475143 11.748667
Ni  8.230410  2.657329 13.578654
Ni 10.046281  0.851871 13.569392
Ni 10.048839  2.659338 11.772415
Ni 11.847500  2.665298 13.577851
Ni 13.635967  0.841468 13.581150
Ni 13.602278  2.700648 11.757905
Ni  1.024094  6.284468  2.704471
Ni  2.789555  4.444140  2.712077
Ni  0.948563  4.486645  0.890641
Ni  4.546156  6.256873  2.710183
Ni  6.375458  4.426310  2.717421
Ni  4.590993  8.046884  0.923748
Ni  4.632663  4.410707  0.915995
Ni  0.976644  8.058535  0.911464
Ni  0.956264  9.912454  2.712604
Ni  4.601484  9.908546  2.651569
Ni  6.376878  8.053756  2.715437
Ni  6.433973  9.926933  0.958674
Ni  2.749546  9.919279  0.886092
Ni  0.941259 13.480496  2.719517
Ni  4.540230 11.760431  0.907969
Ni  2.750711 13.534344  0.860811
Ni  4.561935 13.600557  2.701468
Ni  4.611632 11.734820  4.477700
Ni  6.435180 13.542833  0.915215
Ni  0.973937  2.674064  2.695451
Ni  4.567214  0.905028  0.908859
Ni  0.987285  0.849636  0.849380
Ni  4.575112  2.614902  2.712261
Ni  6.414691  0.834144  2.701553
Ni  6.423294  2.633308  0.955099
Ni  2.781737  0.893471 13.474403
Ni  0.971710  6.247709  6.301142
Ni  2.809250  4.392697  6.334153
Ni  0.960943  4.451220  4.490762
Ni  6.417997  4.441470  6.317362
Ni  6.372154  6.250142  4.449900
Ni  4.607743  4.426177  4.520260
Ni  1.052822  9.920803  6.368238
Ni  2.823821  8.038297  6.282062
Ni  2.805338  9.901205  4.513824
Ni  1.022924  8.086203  4.522133
Ni  4.612883  9.821947  6.322252
Ni  8.195987  6.282795  6.290200
Ni  4.510044  8.027879  4.461310
Ni  0.932176  0.889840  4.497941
Ni  0.978584 11.696888  4.546602
Ni  4.560164 13.581333  6.358394
Ni  6.406533 13.543899  4.540692
Ni  2.756662 13.539595  4.537602
Ni  2.757407  0.928674  6.388516
Ni  2.787717  2.656245  4.483769
Ni  4.626856  2.663200  6.328363
Ni  6.405103  2.589212  4.536775
Ni  0.964865  4.465694  8.123566
Ni  6.470273  4.406335  9.967961
Ni  4.659793  4.483835  8.106213
Ni  1.018715  9.803057  9.969068
Ni  0.973994  8.017627  8.125269
Ni  2.854705  7.869327 10.063368
Ni  6.387772  8.080970  9.965243
Ni  6.452670  9.895885  8.087744
Ni  4.626169  8.064603  8.186410
Ni  0.959572 13.520870  9.964892
Ni  2.783806 11.621324  9.907218
Ni  2.700855 13.477160  8.093969
Ni  4.597897 13.485568  9.914292
Ni  6.430311 11.733087  9.962109
Ni  6.411270 13.504191  8.179177
Ni  4.520176 11.682961  8.160986
Ni  0.957806  2.710939  9.958616
Ni  2.764839  0.833266 10.006939
Ni  0.980934  0.910555  8.200413
Ni  4.655126  2.680333  9.957339
Ni  6.408698  0.848686  9.946289
Ni  6.421791  2.642126  8.152653
Ni  4.568834  0.839183  8.198152
Ni  0.933103  6.273776 13.590996
Ni  2.813714  4.345950 13.552912
Ni  2.791381  4.667973  9.926880
Ni  0.936828  4.475261 11.762755
Ni  4.645338  6.214401 13.588757
Ni  6.443356  4.485837 13.582899
Ni  6.452287  6.256840 11.801905
Ni  4.665385  4.459582 11.759790
Ni  0.970521 11.724725  0.889650
Ni  2.819269  8.090532 13.563516
Ni  2.887978  9.865110 11.724334
Ni  0.986293  8.051932 11.772634
Ni  6.392780  6.251948  0.938275
Ni  6.392427  9.886468 11.819751
Ni  6.412734  8.070215 13.642980
Ni  0.988915 13.512694 13.511937
Ni  2.769534 11.738242 13.543572
Ni  0.986213 11.651005 11.711196
Ni  6.434291 11.714834 13.589250
Ni  6.419498 13.511361 11.732293
Ni  4.639671 11.748863 11.773562
Ni  0.941166  2.661180 13.523286
Ni  4.633669  0.838713 11.724667
Ni  6.451243  0.846324 13.553193
Ni  6.470636  2.649207 11.728861
%ENDBLOCK POSITIONS_ABS

