%block lattice_abc 
  14.46482773 14.46482773 14.46482773 #lattice params 
 90.0  90.0  90.0 
     %endblock lattice_abc 
     fix_all_cell : true 
     %BLOCK POSITIONS_ABS 
Al  8.232764  4.453494  0.931786
 Al 11.849485  4.456430  0.920094
 Al  8.231047  8.102130  0.971155
 Al 11.862135  8.096853  0.929068
 Al  8.305772 11.698060  0.859124
 Al 11.879217 11.698229  0.906034
 Al  8.244349  0.853692  0.929261
 Al 11.856725  0.850853  0.906260
 Al  8.224155  4.437801  4.519671
 Al 11.855534  4.474598  4.513450
 Al  8.300567  7.997644  4.502139
 Al 11.863103  8.081265  4.523333
 Al  8.395106 11.801163  4.552237
 Al 11.872986 11.687909  4.536989
 Al  8.297717  0.827737  4.462712
 Al 11.879132  0.863546  4.519951
 Al  8.249113  4.428048  8.129307
 Al 11.830473  4.492861  8.139979
 Al  8.179119  8.106546  8.082379
 Al 11.826569  8.076724  8.133607
 Al  8.294123 11.701746  8.198263
 Al 11.891213 11.676185  8.152752
 Al  8.345764  0.841624  8.244400
 Al 11.836525  0.851662  8.151911
 Al  8.260664  4.466352 11.784730
 Al 11.812124  4.482668 11.772733
 Al  8.212116  8.084977 11.791370
 Al 11.831216  8.089537 11.771136
 Al  8.229722 11.694039 11.779031
 Al 11.836508 11.678001 11.779774
 Al  8.246703  0.848702 11.756774
 Al 11.874270  0.841662 11.778223
 Al  4.765756  2.648138 13.552727
 Al  0.826507  0.870870 11.746034
 Al  2.803899  2.756226 11.640686
 Al  4.667771 13.544310 13.638733
 Al  2.786110 13.417690 11.673092
 Al  4.609961  9.998391 13.696319
 Al  0.987562  9.887983 13.555492
 Al  2.860233  2.709527  8.261671
 Al  0.870392 11.671750  8.276008
 Al  4.732457  9.962617  9.963515
 Al  2.784495  9.653236  8.166995
 Al  4.791574  6.177765  9.902548
 Al  4.703672  8.040242 11.885102
 Al  2.750718  6.276710  8.030059
 Al  0.804838  6.270984  9.967034
 Al  4.548776  0.861695  4.536774
 Al  6.370717  0.853521  6.451567
 Al  2.647286  0.782642  2.701419
 Al  0.916925  2.674900  6.279252
 Al  6.246864 11.771939  6.383515
 Al  0.904444 13.643535  6.288930
 Al  2.899484 11.687507  6.245641
 Al  6.235206  9.730221  4.550187
 Al  4.898134  6.380238  6.304385
 Al  2.714540  6.158264  4.526990
 Al  2.699745  2.713371  0.886920
 Al  6.289280 11.802934  2.676403
 Al  2.767096 11.715159  2.717343
 Al  2.793201  6.180418  0.820551
 Al  2.741349  6.172845 11.950889
 Al  2.749504  8.204513  2.676362
 Ni  8.227236  6.250278  2.702995
 Ni 10.049755  4.457316  2.724819
 Ni 10.053022  6.278392  0.940155
 Ni 11.866987  6.277495  2.721552
 Ni 13.662589  4.474398  2.702866
 Ni 13.641091  6.291374  0.918256
 Ni  8.175923  9.973436  2.844230
 Ni 10.055093  8.092992  2.725367
 Ni 10.051315  9.890614  0.944459
 Ni 11.871533  9.889192  2.734911
 Ni 13.686550  8.084927  2.727144
 Ni 13.673486  9.899347  0.927391
 Ni  8.243492 13.460215  2.720751
 Ni 10.076589 11.697046  2.715871
 Ni 10.047797 13.509520  0.912711
 Ni 11.865928 13.510792  2.702025
 Ni 13.656973 11.696800  2.725391
 Ni 13.671008 13.498956  0.897924
 Ni  8.227040  2.655535  2.737465
 Ni 10.069875  0.847676  2.710192
 Ni 10.036881  2.654593  0.917355
 Ni 11.853395  2.657887  2.697860
 Ni 13.683404  0.856425  2.694104
 Ni 13.667961  2.655047  0.905032
 Ni  6.526514  6.252066  8.144327
 Ni 10.037521  4.470412  6.322752
 Ni 10.054236  6.253460  4.509318
 Ni 11.832754  6.293916  6.308107
 Ni 13.646199  4.492665  6.319995
 Ni 13.676360  6.279867  4.507702
 Ni  8.158346  9.962522  6.200474
 Ni  9.994274  8.087390  6.322278
 Ni 10.062862  9.890192  4.530677
 Ni 11.853356  9.864250  6.341911
 Ni 13.675366  8.083571  6.324980
 Ni 13.686551  9.891366  4.544721
 Ni  8.233848 13.526789  6.368355
 Ni 10.081802 11.700324  6.359798
 Ni 10.104912 13.532844  4.536474
 Ni 11.888065 13.490928  6.347479
 Ni 13.704177 11.679828  6.344527
 Ni 13.652686 13.510225  4.502008
 Ni  8.238432  2.577858  6.338776
 Ni 10.079609  0.838387  6.338305
 Ni 10.054901  2.654034  4.531823
 Ni 11.850933  2.690656  6.336990
 Ni 13.611198  0.887667  6.358084
 Ni 13.625598  2.667279  4.484118
 Ni  8.226391  6.279002  9.967397
 Ni 10.034859  4.480231  9.954388
 Ni 10.001431  6.288231  8.130827
 Ni 11.844001  6.288858  9.954168
 Ni 13.619935  4.442543  9.953468
 Ni 13.615086  6.274284  8.098737
 Ni  8.197567  9.885640  9.956864
 Ni 10.005513  8.086062  9.946666
 Ni 10.004753  9.877982  8.122936
 Ni 11.816997  9.878265  9.946055
 Ni 13.631871  8.112092  9.956317
 Ni 13.665046  9.848972  8.149839
 Ni  8.253794 13.506699  9.968605
 Ni 10.048208 11.679757  9.971180
 Ni 10.071602 13.488859  8.152803
 Ni 11.851008 13.489252  9.965179
 Ni 13.631492 11.664213 10.004757
 Ni 13.666190 13.525290  8.169097
 Ni  8.263815  2.649381  9.956121
 Ni 10.082693  0.842380  9.989554
 Ni 10.060754  2.664183  8.138556
 Ni 11.826243  2.664908  9.957011
 Ni 13.631482  0.873170  9.927507
 Ni 13.635276  2.676199  8.159046
 Ni  8.243960  6.284924 13.624909
 Ni 10.036262  4.465149 13.597681
 Ni 10.029859  6.291704 11.779937
 Ni 11.821467  6.274736 13.599273
 Ni 13.641719  4.475819 13.579544
 Ni 13.608017  6.284370 11.811389
 Ni  8.227958  9.876397 13.606466
 Ni 10.039076  8.092709 13.604148
 Ni 10.021873  9.877313 11.775003
 Ni 11.857258  9.887585 13.579899
 Ni 13.645500  8.075695 13.580053
 Ni 13.646917  9.868359 11.749042
 Ni  8.237886 13.516892 13.563769
 Ni 10.055221 11.688087 13.569273
 Ni 10.051003 13.498671 11.773625
 Ni 11.842105 13.503897 13.575542
 Ni 13.670806 11.712612 13.546488
 Ni 13.640312 13.475830 11.754237
 Ni  8.227013  2.657308 13.584553
 Ni 10.042265  0.851037 13.575423
 Ni 10.045227  2.657987 11.778429
 Ni 11.844752  2.662701 13.583007
 Ni 13.635595  0.839735 13.587046
 Ni 13.600684  2.698666 11.764699
 Ni  1.007298  6.285592  2.693062
 Ni  2.783875  4.441929  2.705858
 Ni  0.945551  4.485185  0.889962
 Ni  4.545611  6.257698  2.701859
 Ni  6.377382  4.426774  2.717678
 Ni  4.595798  8.051552  0.929364
 Ni  4.632720  4.410707  0.918391
 Ni  0.972383  8.063671  0.912338
 Ni  0.951985  9.913279  2.716916
 Ni  4.610325  9.900568  2.672854
 Ni  6.382378  8.059093  2.729559
 Ni  6.433378  9.926516  0.963714
 Ni  2.753281  9.922816  0.893182
 Ni  0.944207 13.479565  2.726766
 Ni  4.544095 11.755561  0.921116
 Ni  2.753535 13.530797  0.870215
 Ni  4.564235 13.592318  2.713158
 Ni  4.610902 11.719226  4.491581
 Ni  6.433176 13.533734  0.928036
 Ni  0.972954  2.672127  2.698099
 Ni  4.569049  0.900813  0.918441
 Ni  0.988914  0.847338  0.855506
 Ni  4.573123  2.619252  2.719245
 Ni  6.410809  0.833179  2.708888
 Ni  6.422524  2.634144  0.961684
 Ni  2.783603  0.891436 13.482199
 Ni  0.948114  6.246641  6.307376
 Ni  2.816536  4.440437  6.337994
 Ni  0.947159  4.446293  4.492968
 Ni  6.436846  4.414216  6.321151
 Ni  6.401966  6.256085  4.429996
 Ni  4.606131  4.451592  4.524152
 Ni  1.052867  9.911810  6.375181
 Ni  2.823335  7.993964  6.288755
 Ni  2.799545  9.889618  4.525806
 Ni  1.013728  8.086007  4.524903
 Ni  4.590448  9.806854  6.339060
 Ni  8.195566  6.259336  6.292346
 Ni  4.499611  8.010975  4.467154
 Ni  0.936553  0.892792  4.503903
 Ni  0.978551 11.693946  4.553787
 Ni  4.559447 13.578712  6.364116
 Ni  6.401902 13.540305  4.548385
 Ni  2.759645 13.535283  4.544678
 Ni  2.757629  0.930836  6.393213
 Ni  2.787888  2.670131  4.493507
 Ni  4.619378  2.669823  6.331053
 Ni  6.403284  2.589535  4.540028
 Ni  0.958089  4.463023  8.131626
 Ni  6.471164  4.409677  9.970939
 Ni  4.658469  4.505227  8.109885
 Ni  1.017317  9.805422  9.973912
 Ni  0.954475  8.021021  8.136117
 Ni  2.865158  7.873286 10.065147
 Ni  6.389764  8.086485  9.958139
 Ni  6.444574  9.915986  8.093999
 Ni  4.666249  8.051407  8.154733
 Ni  0.960866 13.521070  9.969166
 Ni  2.783274 11.619422  9.909554
 Ni  2.700096 13.477015  8.097484
 Ni  4.595984 13.487541  9.916482
 Ni  6.428298 11.736345  9.966880
 Ni  6.408735 13.504029  8.180981
 Ni  4.517619 11.681420  8.167946
 Ni  0.958197  2.711791  9.966279
 Ni  2.764443  0.836424 10.009291
 Ni  0.983194  0.914263  8.204754
 Ni  4.653191  2.686239  9.959281
 Ni  6.405256  0.849681  9.949618
 Ni  6.419416  2.641168  8.159244
 Ni  4.565246  0.843228  8.200711
 Ni  0.930191  6.277101 13.595571
 Ni  2.814544  4.346093 13.557122
 Ni  2.787920  4.670895  9.942428
 Ni  0.934441  4.475562 11.772743
 Ni  4.647181  6.217146 13.593709
 Ni  6.444541  4.489474 13.587936
 Ni  6.453629  6.261374 11.806376
 Ni  4.666768  4.460801 11.766094
 Ni  0.971713 11.725003  0.895848
 Ni  2.821311  8.094888 13.569756
 Ni  2.888196  9.868057 11.728691
 Ni  0.988357  8.056477 11.777104
 Ni  6.396212  6.257692  0.943486
 Ni  6.393011  9.888152 11.821719
 Ni  6.413999  8.072695 13.646337
 Ni  0.990607 13.512354 13.518226
 Ni  2.772242 11.739770 13.550228
 Ni  0.987199 11.651811 11.716784
 Ni  6.433851 11.715217 13.593179
 Ni  6.417543 13.512184 11.736389
 Ni  4.639976 11.751008 11.776396
 Ni  0.941545  2.659233 13.528128
 Ni  4.632577  0.838967 11.729038
 Ni  6.449482  0.843133 13.560807
 Ni  6.468932  2.650441 11.731703
 %ENDBLOCK POSITIONS_ABS
 
%block positions_abs_product 
     ang 
Al  8.232348  4.447925  0.921827
 Al 11.856501  4.460764  0.915449
 Al  8.229811  8.092885  0.963863
 Al 11.871423  8.087853  0.922495
 Al  8.313818 11.701319  0.841277
 Al 11.884994 11.692994  0.894777
 Al  8.254898  0.859028  0.916629
 Al 11.860631  0.853860  0.896136
 Al  8.216433  4.449683  4.526170
 Al 11.860146  4.475205  4.506783
 Al  8.304999  7.994174  4.439758
 Al 11.870163  8.078532  4.513202
 Al  8.396298 11.795050  4.539550
 Al 11.871082 11.681897  4.527485
 Al  8.303716  0.830915  4.454075
 Al 11.879984  0.865172  4.512154
 Al  8.245738  4.439263  8.108603
 Al 11.842424  4.491080  8.125750
 Al  8.248192  8.080391  8.161597
 Al 11.833255  8.073933  8.121009
 Al  8.292612 11.687845  8.189329
 Al 11.892637 11.667689  8.141026
 Al  8.350534  0.842624  8.236431
 Al 11.834681  0.851503  8.140121
 Al  8.264957  4.460947 11.778831
 Al 11.819586  4.486398 11.760786
 Al  8.213917  8.076024 11.785323
 Al 11.845752  8.080535 11.765244
 Al  8.234407 11.692444 11.775904
 Al 11.841006 11.671088 11.770068
 Al  8.254336  0.850227 11.743865
 Al 11.877541  0.843487 11.766855
 Al  4.759929  2.651062 13.539405
 Al  0.823367  0.872973 11.733657
 Al  2.801942  2.759714 11.624822
 Al  4.666734 13.549465 13.621228
 Al  2.783466 13.417674 11.666193
 Al  4.607568  9.991573 13.689931
 Al  0.985160  9.881434 13.542198
 Al  2.857361  2.685207  8.260222
 Al  0.867184 11.678647  8.268820
 Al  4.737250  9.964910  9.953587
 Al  2.781400  9.699099  8.163896
 Al  4.777933  6.169920  9.887441
 Al  4.698385  8.034554 11.875139
 Al  2.883864  6.257095  7.895700
 Al  0.841872  6.266884  9.921021
 Al  4.555346  0.856055  4.522941
 Al  6.379139  0.847007  6.442398
 Al  2.642447  0.781907  2.687052
 Al  0.908540  2.660082  6.269969
 Al  6.253670 11.790217  6.375664
 Al  0.901220 13.643946  6.280769
 Al  2.900261 11.702640  6.226501
 Al  6.232931  9.819864  4.429685
 Al  6.089719  7.775104  6.356189
 Al  2.835458  6.160024  4.622389
 Al  2.698864  2.720656  0.882696
 Al  6.287767 11.842441  2.631118
 Al  2.762632 11.730309  2.695122
 Al  2.796698  6.174658  0.819528
 Al  2.740912  6.163848 11.932803
 Al  2.757591  8.190971  2.679082
 Ni  8.202256  6.234095  2.701526
 Ni 10.048341  4.457017  2.719499
 Ni 10.049530  6.272730  0.935832
 Ni 11.873860  6.274916  2.718590
 Ni 13.673499  4.480214  2.703269
 Ni 13.655790  6.287734  0.921606
 Ni  8.183031  9.979949  2.816798
 Ni 10.062005  8.085500  2.706223
 Ni 10.057325  9.885220  0.932078
 Ni 11.875712  9.882398  2.725153
 Ni 13.699323  8.078106  2.725464
 Ni 13.680366  9.890331  0.920137
 Ni  8.251397 13.464037  2.704972
 Ni 10.081504 11.694935  2.702505
 Ni 10.055558 13.510681  0.900006
 Ni 11.867320 13.509681  2.691150
 Ni 13.657460 11.691792  2.714646
 Ni 13.670355 13.498604  0.885832
 Ni  8.228400  2.659995  2.731049
 Ni 10.075141  0.851418  2.701947
 Ni 10.043249  2.657846  0.908543
 Ni 11.857855  2.662673  2.691659
 Ni 13.680930  0.858466  2.684122
 Ni 13.671058  2.660968  0.899059
 Ni  6.487492  6.228553  8.146531
 Ni 10.038949  4.476190  6.312263
 Ni 10.052738  6.251937  4.499991
 Ni 11.837636  6.290521  6.295973
 Ni 13.663598  4.498990  6.306832
 Ni 13.690754  6.279983  4.506249
 Ni  8.110206  9.880421  6.159711
 Ni 10.012304  8.088826  6.305909
 Ni 10.060667  9.882112  4.517969
 Ni 11.859599  9.862295  6.330342
 Ni 13.691477  8.078577  6.314423
 Ni 13.692521  9.887758  4.535214
 Ni  8.236448 13.521279  6.359646
 Ni 10.062476 11.677442  6.350858
 Ni 10.105507 13.529438  4.527698
 Ni 11.878942 13.482379  6.337815
 Ni 13.703352 11.681200  6.333580
 Ni 13.647021 13.507654  4.491387
 Ni  8.230201  2.596740  6.329668
 Ni 10.073553  0.842025  6.329674
 Ni 10.055128  2.659619  4.526149
 Ni 11.856676  2.693141  6.327052
 Ni 13.605141  0.881854  6.348790
 Ni 13.631790  2.673470  4.474004
 Ni  8.227916  6.260154  9.965468
 Ni 10.040856  4.478549  9.942245
 Ni 10.017414  6.279282  8.121102
 Ni 11.853961  6.285041  9.940293
 Ni 13.631950  4.449133  9.936086
 Ni 13.630173  6.277159  8.079757
 Ni  8.201363  9.884102  9.961267
 Ni 10.025821  8.078099  9.956093
 Ni 10.006103  9.872309  8.113008
 Ni 11.824308  9.869807  9.934999
 Ni 13.646845  8.100747  9.936778
 Ni 13.677360  9.839358  8.136695
 Ni  8.258168 13.501579  9.960113
 Ni 10.051704 11.672112  9.962992
 Ni 10.071084 13.480276  8.141669
 Ni 11.851067 13.484897  9.954585
 Ni 13.631768 11.659025  9.995363
 Ni 13.660209 13.522466  8.160074
 Ni  8.267219  2.653257  9.944155
 Ni 10.087196  0.843622  9.977267
 Ni 10.061543  2.670360  8.126401
 Ni 11.832285  2.668633  9.943871
 Ni 13.628840  0.871775  9.916285
 Ni 13.640408  2.678164  8.146700
 Ni  8.242397  6.279569 13.616058
 Ni 10.041723  4.466353 13.589222
 Ni 10.034759  6.286359 11.772840
 Ni 11.831819  6.270722 13.592334
 Ni 13.648707  4.478445 13.569980
 Ni 13.624286  6.280331 11.788939
 Ni  8.230164  9.870427 13.597184
 Ni 10.044240  8.084269 13.596563
 Ni 10.029557  9.870932 11.770270
 Ni 11.864183  9.879648 13.571809
 Ni 13.651738  8.065203 13.575027
 Ni 13.651112  9.859506 11.736887
 Ni  8.243763 13.519586 13.550765
 Ni 10.063202 11.684828 13.558374
 Ni 10.057057 13.496403 11.762397
 Ni 11.846881 13.502012 13.563660
 Ni 13.671678 11.707714 13.534935
 Ni 13.640144 13.474455 11.743097
 Ni  8.233808  2.657351 13.572755
 Ni 10.050296  0.852705 13.563362
 Ni 10.052450  2.660689 11.766400
 Ni 11.850249  2.667894 13.572695
 Ni 13.636340  0.843202 13.575253
 Ni 13.603872  2.702630 11.751111
 Ni  1.040889  6.283344  2.715879
 Ni  2.795236  4.446352  2.718296
 Ni  0.951574  4.488106  0.891320
 Ni  4.546702  6.256048  2.718507
 Ni  6.373535  4.425846  2.717164
 Ni  4.586189  8.042216  0.918133
 Ni  4.632607  4.410706  0.913599
 Ni  0.980905  8.053399  0.910589
 Ni  0.960544  9.911628  2.708292
 Ni  4.592643  9.916524  2.630285
 Ni  6.371379  8.048419  2.701315
 Ni  6.434567  9.927349  0.953635
 Ni  2.745811  9.915742  0.879003
 Ni  0.938310 13.481428  2.712267
 Ni  4.536366 11.765301  0.894823
 Ni  2.747886 13.537890  0.851408
 Ni  4.559634 13.608795  2.689778
 Ni  4.612361 11.750414  4.463819
 Ni  6.437184 13.551932  0.902393
 Ni  0.974920  2.676002  2.692804
 Ni  4.565379  0.909243  0.899277
 Ni  0.985657  0.851933  0.843254
 Ni  4.577101  2.610552  2.705277
 Ni  6.418573  0.835109  2.694218
 Ni  6.424065  2.632471  0.948514
 Ni  2.779872  0.895506 13.466607
 Ni  0.995305  6.248777  6.294907
 Ni  2.801963  4.344957  6.330311
 Ni  0.974727  4.456148  4.488556
 Ni  6.399148  4.468725  6.313573
 Ni  6.342343  6.244200  4.469804
 Ni  4.609356  4.400763  4.516368
 Ni  1.052778  9.929796  6.361295
 Ni  2.824307  8.082630  6.275370
 Ni  2.811132  9.912792  4.501843
 Ni  1.032120  8.086398  4.519362
 Ni  4.635318  9.837040  6.305444
 Ni  8.196408  6.306254  6.288054
 Ni  4.520476  8.044783  4.455466
 Ni  0.927799  0.886887  4.491979
 Ni  0.978617 11.699830  4.539416
 Ni  4.560881 13.583954  6.352673
 Ni  6.411163 13.547494  4.532999
 Ni  2.753678 13.543907  4.530526
 Ni  2.757184  0.926512  6.383819
 Ni  2.787547  2.642360  4.474031
 Ni  4.634333  2.656577  6.325673
 Ni  6.406922  2.588888  4.533522
 Ni  0.971641  4.468364  8.115507
 Ni  6.469382  4.402993  9.964983
 Ni  4.661118  4.462443  8.102540
 Ni  1.020112  9.800692  9.964224
 Ni  0.993513  8.014233  8.114422
 Ni  2.844252  7.865368 10.061590
 Ni  6.385779  8.075454  9.972346
 Ni  6.460766  9.875783  8.081488
 Ni  4.586088  8.077798  8.218086
 Ni  0.958277 13.520670  9.960618
 Ni  2.784338 11.623225  9.904883
 Ni  2.701613 13.477304  8.090454
 Ni  4.599810 13.483595  9.912102
 Ni  6.432323 11.729830  9.957338
 Ni  6.413805 13.504353  8.177373
 Ni  4.522732 11.684501  8.154026
 Ni  0.957415  2.710086  9.950953
 Ni  2.765235  0.830107 10.004588
 Ni  0.978674  0.906847  8.196072
 Ni  4.657062  2.674427  9.955397
 Ni  6.412141  0.847692  9.942961
 Ni  6.424166  2.643083  8.146062
 Ni  4.572422  0.835138  8.195593
 Ni  0.936015  6.270451 13.586420
 Ni  2.812885  4.345807 13.548702
 Ni  2.794842  4.665050  9.911333
 Ni  0.939216  4.474959 11.752767
 Ni  4.643494  6.211657 13.583805
 Ni  6.442171  4.482200 13.577861
 Ni  6.450945  6.252306 11.797434
 Ni  4.664003  4.458363 11.753486
 Ni  0.969329 11.724447  0.883452
 Ni  2.817226  8.086177 13.557277
 Ni  2.887760  9.862163 11.719978
 Ni  0.984228  8.047387 11.768163
 Ni  6.389348  6.246203  0.933064
 Ni  6.391844  9.884783 11.817783
 Ni  6.411468  8.067735 13.639623
 Ni  0.987223 13.513034 13.505648
 Ni  2.766826 11.736714 13.536917
 Ni  0.985228 11.650200 11.705609
 Ni  6.434731 11.714452 13.585322
 Ni  6.421453 13.510539 11.728196
 Ni  4.639366 11.746719 11.770728
 Ni  0.940786  2.663127 13.518444
 Ni  4.634762  0.838459 11.720296
 Ni  6.453005  0.849515 13.545578
 Ni  6.472340  2.647973 11.726019
%endblock positions_abs_product 
%block positions_abs_intermediate 
     ang 
Al  8.232556  4.450710  0.926806
 Al 11.852993  4.458597  0.917772
 Al  8.230429  8.097507  0.967509
 Al 11.866779  8.092353  0.925781
 Al  8.309795 11.699689  0.850201
 Al 11.882106 11.695612  0.900405
 Al  8.249623  0.856360  0.922945
 Al 11.858678  0.852357  0.901198
 Al  8.220294  4.443742  4.522921
 Al 11.857840  4.474901  4.510116
 Al  8.302783  7.995909  4.470948
 Al 11.866633  8.079898  4.518268
 Al  8.395702 11.798107  4.545894
 Al 11.872034 11.684903  4.532237
 Al  8.300717  0.829326  4.458394
 Al 11.879558  0.864359  4.516052
 Al  8.247425  4.433656  8.118955
 Al 11.836448  4.491970  8.132865
 Al  8.213656  8.093468  8.121988
 Al 11.829912  8.075329  8.127308
 Al  8.293368 11.694796  8.193796
 Al 11.891925 11.671937  8.146889
 Al  8.348149  0.842124  8.240416
 Al 11.835603  0.851583  8.146016
 Al  8.262811  4.463650 11.781781
 Al 11.815855  4.484533 11.766760
 Al  8.213016  8.080500 11.788346
 Al 11.838484  8.085036 11.768190
 Al  8.232065 11.693242 11.777468
 Al 11.838757 11.674544 11.774921
 Al  8.250519  0.849464 11.750320
 Al 11.875905  0.842575 11.772539
 Al  4.762843  2.649600 13.546066
 Al  0.824937  0.871921 11.739845
 Al  2.802921  2.757970 11.632754
 Al  4.667252 13.546888 13.629980
 Al  2.784788 13.417682 11.669643
 Al  4.608764  9.994982 13.693125
 Al  0.986361  9.884708 13.548845
 Al  2.858797  2.697367  8.260947
 Al  0.868788 11.675199  8.272414
 Al  4.734854  9.963764  9.958551
 Al  2.782948  9.676168  8.165446
 Al  4.784754  6.173843  9.894995
 Al  4.701029  8.037398 11.880121
 Al  2.817291  6.266902  7.962879
 Al  0.823355  6.268934  9.944028
 Al  4.552061  0.858875  4.529858
 Al  6.374928  0.850264  6.446982
 Al  2.644867  0.782274  2.694236
 Al  0.912732  2.667491  6.274610
 Al  6.250267 11.781078  6.379590
 Al  0.902832 13.643741  6.284850
 Al  2.899872 11.695074  6.236071
 Al  6.234068  9.775043  4.489936
 Al  5.493926  7.077671  6.330287
 Al  2.774999  6.159144  4.574689
 Al  2.699304  2.717013  0.884808
 Al  6.288524 11.822688  2.653760
 Al  2.764864 11.722734  2.706233
 Al  2.794950  6.177538  0.820040
 Al  2.741130  6.168346 11.941846
 Al  2.753548  8.197742  2.677722
 Ni  8.214746  6.242186  2.702260
 Ni 10.049048  4.457166  2.722159
 Ni 10.051276  6.275561  0.937994
 Ni 11.870423  6.276205  2.720071
 Ni 13.668044  4.477306  2.703068
 Ni 13.648440  6.289554  0.919931
 Ni  8.179477  9.976693  2.830514
 Ni 10.058549  8.089246  2.715795
 Ni 10.054320  9.887917  0.938269
 Ni 11.873623  9.885795  2.730032
 Ni 13.692937  8.081517  2.726304
 Ni 13.676926  9.894839  0.923764
 Ni  8.247444 13.462126  2.712862
 Ni 10.079046 11.695991  2.709188
 Ni 10.051678 13.510101  0.906359
 Ni 11.866624 13.510236  2.696587
 Ni 13.657216 11.694296  2.720018
 Ni 13.670681 13.498780  0.891878
 Ni  8.227720  2.657765  2.734257
 Ni 10.072508  0.849547  2.706070
 Ni 10.040065  2.656219  0.912949
 Ni 11.855625  2.660280  2.694759
 Ni 13.682167  0.857445  2.689113
 Ni 13.669509  2.658008  0.902046
 Ni  6.507003  6.240309  8.145429
 Ni 10.038235  4.473301  6.317508
 Ni 10.053487  6.252698  4.504655
 Ni 11.835195  6.292219  6.302040
 Ni 13.654898  4.495828  6.313413
 Ni 13.683557  6.279925  4.506976
 Ni  8.134276  9.921471  6.180093
 Ni 10.003289  8.088108  6.314093
 Ni 10.061764  9.886152  4.524323
 Ni 11.856477  9.863273  6.336127
 Ni 13.683421  8.081074  6.319701
 Ni 13.689536  9.889562  4.539968
 Ni  8.235148 13.524034  6.364000
 Ni 10.072139 11.688883  6.355328
 Ni 10.105210 13.531141  4.532086
 Ni 11.883504 13.486653  6.342647
 Ni 13.703764 11.680514  6.339053
 Ni 13.649854 13.508940  4.496697
 Ni  8.234316  2.587299  6.334222
 Ni 10.076581  0.840206  6.333989
 Ni 10.055014  2.656826  4.528986
 Ni 11.853804  2.691899  6.332021
 Ni 13.608169  0.884761  6.353437
 Ni 13.628694  2.670374  4.479061
 Ni  8.227153  6.269578  9.966432
 Ni 10.037857  4.479390  9.948316
 Ni 10.009423  6.283756  8.125964
 Ni 11.848981  6.286950  9.947230
 Ni 13.625943  4.445838  9.944777
 Ni 13.622630  6.275722  8.089247
 Ni  8.199465  9.884871  9.959066
 Ni 10.015667  8.082081  9.951380
 Ni 10.005428  9.875146  8.117972
 Ni 11.820653  9.874036  9.940527
 Ni 13.639358  8.106420  9.946547
 Ni 13.671203  9.844165  8.143267
 Ni  8.255981 13.504139  9.964359
 Ni 10.049956 11.675935  9.967086
 Ni 10.071343 13.484567  8.147236
 Ni 11.851037 13.487074  9.959882
 Ni 13.631630 11.661619 10.000060
 Ni 13.663199 13.523878  8.164585
 Ni  8.265517  2.651319  9.950138
 Ni 10.084944  0.843001  9.983410
 Ni 10.061148  2.667272  8.132479
 Ni 11.829264  2.666770  9.950441
 Ni 13.630161  0.872473  9.921896
 Ni 13.637842  2.677182  8.152873
 Ni  8.243179  6.282247 13.620484
 Ni 10.038993  4.465751 13.593451
 Ni 10.032309  6.289032 11.776388
 Ni 11.826643  6.272729 13.595803
 Ni 13.645213  4.477132 13.574762
 Ni 13.616151  6.282350 11.800164
 Ni  8.229061  9.873412 13.601825
 Ni 10.041658  8.088489 13.600356
 Ni 10.025715  9.874122 11.772636
 Ni 11.860720  9.883617 13.575854
 Ni 13.648619  8.070449 13.577540
 Ni 13.649015  9.863932 11.742964
 Ni  8.240825 13.518239 13.557267
 Ni 10.059212 11.686458 13.563823
 Ni 10.054030 13.497537 11.768011
 Ni 11.844493 13.502955 13.569601
 Ni 13.671242 11.710163 13.540711
 Ni 13.640228 13.475143 11.748667
 Ni  8.230410  2.657329 13.578654
 Ni 10.046281  0.851871 13.569392
 Ni 10.048839  2.659338 11.772415
 Ni 11.847500  2.665298 13.577851
 Ni 13.635967  0.841468 13.581150
 Ni 13.602278  2.700648 11.757905
 Ni  1.024094  6.284468  2.704471
 Ni  2.789555  4.444140  2.712077
 Ni  0.948563  4.486645  0.890641
 Ni  4.546156  6.256873  2.710183
 Ni  6.375458  4.426310  2.717421
 Ni  4.590993  8.046884  0.923748
 Ni  4.632663  4.410707  0.915995
 Ni  0.976644  8.058535  0.911464
 Ni  0.956264  9.912454  2.712604
 Ni  4.601484  9.908546  2.651569
 Ni  6.376878  8.053756  2.715437
 Ni  6.433973  9.926933  0.958674
 Ni  2.749546  9.919279  0.886092
 Ni  0.941259 13.480496  2.719517
 Ni  4.540230 11.760431  0.907969
 Ni  2.750711 13.534344  0.860811
 Ni  4.561935 13.600557  2.701468
 Ni  4.611632 11.734820  4.477700
 Ni  6.435180 13.542833  0.915215
 Ni  0.973937  2.674064  2.695451
 Ni  4.567214  0.905028  0.908859
 Ni  0.987285  0.849636  0.849380
 Ni  4.575112  2.614902  2.712261
 Ni  6.414691  0.834144  2.701553
 Ni  6.423294  2.633308  0.955099
 Ni  2.781737  0.893471 13.474403
 Ni  0.971710  6.247709  6.301142
 Ni  2.809250  4.392697  6.334153
 Ni  0.960943  4.451220  4.490762
 Ni  6.417997  4.441470  6.317362
 Ni  6.372154  6.250142  4.449900
 Ni  4.607743  4.426177  4.520260
 Ni  1.052822  9.920803  6.368238
 Ni  2.823821  8.038297  6.282062
 Ni  2.805338  9.901205  4.513824
 Ni  1.022924  8.086203  4.522133
 Ni  4.612883  9.821947  6.322252
 Ni  8.195987  6.282795  6.290200
 Ni  4.510044  8.027879  4.461310
 Ni  0.932176  0.889840  4.497941
 Ni  0.978584 11.696888  4.546602
 Ni  4.560164 13.581333  6.358394
 Ni  6.406533 13.543899  4.540692
 Ni  2.756662 13.539595  4.537602
 Ni  2.757407  0.928674  6.388516
 Ni  2.787717  2.656245  4.483769
 Ni  4.626856  2.663200  6.328363
 Ni  6.405103  2.589212  4.536775
 Ni  0.964865  4.465694  8.123566
 Ni  6.470273  4.406335  9.967961
 Ni  4.659793  4.483835  8.106213
 Ni  1.018715  9.803057  9.969068
 Ni  0.973994  8.017627  8.125269
 Ni  2.854705  7.869327 10.063368
 Ni  6.387772  8.080970  9.965243
 Ni  6.452670  9.895885  8.087744
 Ni  4.626169  8.064603  8.186410
 Ni  0.959572 13.520870  9.964892
 Ni  2.783806 11.621324  9.907218
 Ni  2.700855 13.477160  8.093969
 Ni  4.597897 13.485568  9.914292
 Ni  6.430311 11.733087  9.962109
 Ni  6.411270 13.504191  8.179177
 Ni  4.520176 11.682961  8.160986
 Ni  0.957806  2.710939  9.958616
 Ni  2.764839  0.833266 10.006939
 Ni  0.980934  0.910555  8.200413
 Ni  4.655126  2.680333  9.957339
 Ni  6.408698  0.848686  9.946289
 Ni  6.421791  2.642126  8.152653
 Ni  4.568834  0.839183  8.198152
 Ni  0.933103  6.273776 13.590996
 Ni  2.813714  4.345950 13.552912
 Ni  2.791381  4.667973  9.926880
 Ni  0.936828  4.475261 11.762755
 Ni  4.645338  6.214401 13.588757
 Ni  6.443356  4.485837 13.582899
 Ni  6.452287  6.256840 11.801905
 Ni  4.665385  4.459582 11.759790
 Ni  0.970521 11.724725  0.889650
 Ni  2.819269  8.090532 13.563516
 Ni  2.887978  9.865110 11.724334
 Ni  0.986293  8.051932 11.772634
 Ni  6.392780  6.251948  0.938275
 Ni  6.392427  9.886468 11.819751
 Ni  6.412734  8.070215 13.642980
 Ni  0.988915 13.512694 13.511937
 Ni  2.769534 11.738242 13.543572
 Ni  0.986213 11.651005 11.711196
 Ni  6.434291 11.714834 13.589250
 Ni  6.419498 13.511361 11.732293
 Ni  4.639671 11.748863 11.773562
 Ni  0.941166  2.661180 13.523286
 Ni  4.633669  0.838713 11.724667
 Ni  6.451243  0.846324 13.553193
 Ni  6.470636  2.649207 11.728861
%endblock positions_abs_intermediate 
     kpoint_mp_grid 1 1 1 
     fix_com : false