#######################################################
#CASTEP cell file: /home/u2093113/Documents/kART/barriers/CASTEP/castep.cell
#Created using the Atomic Simulation Environment (ASE)#
#######################################################

%BLOCK LATTICE_CART
14.464828  0.000000  0.000000
 0.000000 14.464828  0.000000
 0.000000  0.000000 14.464828
%ENDBLOCK LATTICE_CART

%BLOCK POSITIONS_ABS
Ni  0.892856  2.716138 13.590299
Ni  2.682014  0.909723 13.590958
Ni  2.678628  2.708477 11.789329
Al  0.861664  0.909416 11.787201
Ni  0.896010  6.313464 13.591361
Ni  2.688139  4.511228 13.608588
Ni  2.676635  6.310083 11.798432
Al  0.883242  4.517078 11.775705
Ni  0.882020  9.932480 13.574831
Ni  2.665137  8.117482 13.613898
Ni  2.678794  9.933096 11.789205
Al  0.889609  8.120874 11.768868
Ni  0.880386 13.564898 13.577722
Ni  2.667159 11.751041 13.576891
Ni  2.677783 13.570065 11.789714
Al  0.871101 11.748483 11.776618
Ni  0.883874  2.712372  2.726547
Ni  2.666405  0.904875  2.718575
Ni  2.688251  2.713529  0.934347
Al  0.853375  0.912695  0.918023
Ni  0.892004  6.313197  2.738780
Ni  2.691539  4.504968  2.732968
Ni  2.683608  6.314511  0.947392
Al  0.867584  4.515147  0.933440
Ni  0.854011  9.943113  2.715839
Ni  2.641050  8.147370  2.713669
Ni  2.644838  9.939946  0.909131
Al  0.851007  8.120596  0.926695
Ni  0.875441 13.567368  2.719277
Ni  2.611547 11.746073  2.711517
Ni  2.646809 13.561559  0.903877
Al  0.835366 11.750261  0.903894
Ni  0.882883  2.716904  6.348873
Ni  2.622003  0.902394  6.343376
Ni  2.651514  2.694243  4.533809
Al  0.833920  0.909741  4.528186
Ni  0.929110  6.322479  6.365618
Ni  2.699092  4.501403  6.349877
Ni  2.686313  6.334237  4.534352
Al  0.881549  4.521495  4.545270
Ni  0.884146  9.937728  6.352803
Ni  2.730505  8.135752  6.326945
Ni  2.615731  9.967112  4.518311
Al  0.873875  8.128052  4.549031
Ni  0.866450 13.565432  6.349037
Ni  2.634649 11.778855  6.344574
Ni  2.622765 13.565503  4.529530
Al  0.826603 11.751860  4.537336
Ni  0.892568  2.720775  9.981853
Ni  2.659536  0.904227  9.986628
Ni  2.649558  2.679686  8.168808
Al  0.841389  0.910639  8.172961
Ni  0.940673  6.317986  9.946533
Ni  2.718748  4.506796  9.970195
Ni  2.840709  6.317052  8.137303
Al  0.911177  4.531552  8.161224
Ni  0.908039  9.931535  9.974741
Ni  2.715492  8.123541  9.952389
Ni  2.653559  9.965537  8.150804
Al  0.921313  8.110730  8.148821
Ni  0.885771 13.562785  9.980787
Ni  2.670640 11.768438  9.963733
Ni  2.635630 13.582430  8.160517
Al  0.852319 11.752365  8.168722
Ni  4.489714  2.709683 13.592449
Ni  6.274429  0.918380 13.590064
Ni  6.289909  2.698895 11.772853
Ni  4.461735  0.915709 11.779003
Ni  8.104515  2.724966 13.542849
Ni  9.846575  0.826456 13.547646
Ni  9.911449  2.701166 11.726633
Ni  8.069890  0.867948 11.778466
Ni 11.691398  2.656709 13.549568
Ni 13.526011  0.843113 13.549897
Ni 11.674273  0.858807 11.752516
Ni  4.488692  6.317823 13.596259
Ni  6.291498  4.515096 13.609539
Ni  6.302422  6.337194 11.822201
Ni  4.477932  4.497006 11.802248
Ni  8.149560  6.309848 13.636714
Al 11.565592 11.756994  8.143318
Ni 11.717880  4.577955 11.751075
Ni  8.108093  4.549203 11.797347
Ni 11.705437  6.380286 13.585286
Al 13.543858 13.647249  8.122305
Al  7.915802 13.454830 13.502267
Al  8.204264 11.731187  8.147460
Ni 13.541609  6.332631 11.740042
Ni  4.465755  9.914271 13.618560
Ni  6.266468  8.114216 13.631450
Al  7.946734  8.270213  8.121919
Ni  4.429376  8.112467 11.798075
Al  9.936344 13.504024 11.710553
Ni  9.906905  8.212440 13.605693
Al  6.170045 11.829162  9.944638
Ni  8.060057  8.161892 11.775637
Ni 11.720579  9.920912 13.556736
Ni 13.529742  9.942863 11.707946
Al 13.552558  9.980095  8.145262
Ni  4.488379 13.565748 13.593934
Ni  6.204308 11.702292 13.564526
Ni  6.222910 13.550323 11.753487
Ni  4.425024 11.745966 11.771209
Ni  8.024411 11.670898 11.742891
Ni  9.872220 11.677802 13.508977
Ni  8.023616  9.945941  9.975910
Ni  9.881020 11.721674  9.969531
Ni 11.707012 13.491311 13.540221
Al  9.894572  6.448549 11.827200
Ni 11.730798 11.725121 11.707126
Ni 13.571099 11.790555  9.898165
Ni  4.511400  2.692799  2.772669
Al  7.950816  6.287867  9.932998
Ni  6.263611  2.727719  0.956845
Ni  4.463590  0.895328  0.946496
Ni  8.040556  2.703576  2.752632
Ni  9.887283  0.864974  2.688014
Ni  9.924657  2.702455  0.912947
Al  4.474380  8.275671  8.117649
Ni 11.745208  2.667767  2.693458
Ni 13.562226  0.854310  2.712144
Ni 11.670598  0.817578  0.900141
Al 11.803157  6.343212  9.844742
Ni  4.500326  6.349801  2.821374
Al  9.889879  2.714907  8.317882
Ni  6.296606  6.313337  0.958289
Ni  4.480063  4.530596  0.955816
Ni  8.070596  6.326174  2.761240
Ni  9.904839  4.525888  2.714362
Al  4.469591  4.358139  8.146819
Al  4.509390  6.306459 10.080782
Ni 11.722634  6.363833  2.757299
Ni 11.705629  4.520730  0.919507
Ni 13.516081  6.335369  0.916389
Ni 13.512882  4.517818 13.591246
Al 13.637864 13.602350  4.659555
Ni  4.450753  9.997149  2.692366
Ni  6.272156  8.122762  2.764926
Ni  6.263256  9.933300  0.954280
Ni  4.450739  8.115698  0.970768
Ni  8.095244  9.980201  2.701666
Ni  9.934245  8.193657  2.770678
Al  6.274796 11.727492  6.248372
Ni  8.095147  8.145535  0.968338
Ni 11.735315 11.730876  0.930645
Al  4.387712 13.636498  6.333374
Al 13.493756  8.113076  6.255533
Ni 11.771236  8.211903  1.003384
Al  9.971898  8.202347  6.229192
Ni 13.532143  9.960896  0.963944
Al  4.418338  8.272955  4.440545
Ni  6.253157 11.792659  2.721700
Ni  6.270183 13.577101  0.929878
Ni  4.430352 11.754853  0.917306
Ni  8.091924 13.574662  2.662157
Ni  9.916105 11.772761  2.726825
Ni  8.068929 11.746337  0.900840
Al 13.402061  4.559563  6.326209
Ni 13.597898 11.805191  2.763575
Ni 13.535401 13.530468  0.882301
Al  9.931104  4.538285  6.267323
Al  7.837201  6.319688  6.181345
Al  4.573745  6.275920  6.180287
Ni  4.457152  2.637636  6.356139
Ni  6.303296  0.848983  6.359297
Ni  4.446140  0.886211  4.522857
Ni  8.190251  2.693278  6.384152
Ni  8.113096  0.872981  8.163530
Ni  9.917388  2.671563  4.503813
Ni  8.086643  0.880772  4.519194
Al 13.470025  4.619900  2.747348
Al 13.421360  2.544688  4.539042
Ni 11.695225  0.820466  4.521807
Al  9.874119  0.829313  6.293364
Al  6.301995  2.656952  4.706076
Ni  6.265799  4.454580  6.332488
Ni  4.456112  4.465818  4.551960
Ni  9.860562  6.343112  4.533704
Al 13.473166 11.651683 13.545418
Ni 11.755184  8.173711  4.500568
Ni  8.068791  4.489600  4.519665
Ni  9.773736  6.400116  8.047266
Al 11.759153 13.532914  2.732700
Al  9.921602 13.446028  0.837874
Ni 11.701826  4.494628  4.503511
Ni 13.570845  6.305317  4.584293
Ni  4.453650  9.997494  6.299018
Ni  6.206480  8.190997  6.264404
Ni  6.271367  9.981473  4.462031
Al  4.368792 13.480443  2.722399
Ni  8.086793  9.965120  6.298014
Ni  9.916890 10.000557  4.499378
Ni  8.066525  8.171600  4.525278
Ni 11.739939  9.979875  6.330997
Ni 11.675110  6.350569  6.331599
Ni 13.574182  9.983816  4.577765
Al 11.786033 10.065645  2.842400
Al 13.638224  8.081585  2.778447
Al  9.925106  9.965236  0.943851
Ni  6.239233 13.562186  4.514271
Ni  4.415483 11.761726  4.536867
Ni  8.076819 13.519034  6.327051
Ni  9.887883 11.758701  6.311508
Ni  9.899821 13.549033  4.502569
Ni  8.077556 11.770360  4.502359
Ni 11.720264 13.563256  6.363252
Ni 13.545870 11.783233  6.417597
Ni 11.770568 11.829831  4.570260
Ni  4.502475  2.678257  9.973153
Ni  6.288315  0.871970  9.945445
Ni  6.319190  2.662093  8.134326
Ni  4.454574  0.902160  8.163275
Ni  8.067864  2.738893  9.983291
Ni  9.856482  0.878515  9.990538
Ni 11.633892  2.687533  6.371638
Ni  8.058027 13.514527  9.981629
Ni 11.712318  2.733366  9.998455
Ni 13.577122  0.895275  9.972409
Ni 13.548064  0.950540  6.380962
Ni 11.647792  0.887236  8.169721
Al  8.071039  4.459798  0.942939
Ni  6.252999  4.494046  9.962811
Ni  6.161514  6.325577  8.120992
Al  9.971283  6.459497  0.984008
Ni  9.856781  8.065038  9.912417
Al  6.206047  4.594651  2.823551
Ni  8.078909  4.541772  8.116519
Ni 11.741594  8.119822 11.713002
Ni 13.615812  4.473327  9.992707
Ni 13.574136  6.317128  8.079724
Ni 11.671453  4.532068  8.164494
Al 13.446777  2.584829  0.828114
Ni  4.460188  9.967013  9.958649
Ni  6.218823  8.141238  9.945916
Ni  6.264833 10.059139  8.137354
Al  8.106990  1.015880  0.873189
Al  6.260228  0.880810  2.744651
Al 13.478595 13.603195 11.722247
Ni  9.883392  9.897023  8.144580
Ni  9.880730  4.641057  9.976925
Ni 11.736760  9.920466  9.902066
Ni 13.578283  8.152741  9.904445
Ni 11.722867  8.155700  8.100012
Al 13.537161  8.164696 13.584665
Ni  4.449320 13.589747  9.944735
Al  9.949695  9.896624 11.687946
Ni  6.284482 13.507590  8.115568
Ni  4.431880 11.780533  8.101688
Al  7.996493  9.934462 13.635553
Al  6.155677  9.858622 11.772885
Ni  9.889739 13.570854  8.167418
Al 13.438625  2.641267 11.812707
Al 13.412280  2.630836  8.209990
Ni 11.729141 13.545328  9.924249
Al  9.989858  4.425669 13.540850
%ENDBLOCK POSITIONS_ABS

FIX_ALL_CELL: TRUE
KPOINT_MP_GRID: 1 1 1
