#######################################################
#CASTEP cell file: /home/u2093113/Documents/kART/CASTEP/castep.cell
#Created using the Atomic Simulation Environment (ASE)#
#######################################################

%BLOCK LATTICE_CART
14.464828  0.000000  0.000000
 0.000000 14.464828  0.000000
 0.000000  0.000000 14.464828
%ENDBLOCK LATTICE_CART

%BLOCK POSITIONS_ABS
Al  8.218357  4.453802 11.758321
Al 11.839478  4.464040 11.758243
Al  8.212222  8.086031 11.792848
Al 11.852906  8.085554 11.771374
Al  8.295416 11.684605 11.690067
Al 11.873433 11.683505 11.742000
Al  8.233352  0.852991 11.759617
Al 11.852805  0.848300 11.738307
Al  8.211422  4.443458  0.925355
Al 11.856259  4.472444  0.875128
Al  8.280140  7.987264  0.906119
Al 11.867139  8.074663  0.891374
Al  8.396442 11.800221  0.914614
Al 11.877401 11.681993  0.896601
Al  8.295887  0.825341  0.833514
Al 11.879735  0.859078  0.872565
Al  8.301032  4.370354  4.517785
Al 11.845153  4.475895  4.508966
Al  8.289409  8.167615  4.499418
Al 11.845966  8.075824  4.503128
Al  8.301291 11.703252  4.573354
Al 11.905010 11.683952  4.525726
Al  8.343739  0.836013  4.620063
Al 11.851482  0.842831  4.528369
Al  8.266216  4.458684  8.132752
Al 11.822016  4.477774  8.156046
Al  8.220334  8.071430  8.138028
Al 11.840780  8.080802  8.150949
Al  8.221441 11.690667  8.152395
Al 11.841849 11.672591  8.161055
Al  8.231638  0.839318  8.129528
Al 11.870735  0.838217  8.163124
Al  4.770807  2.668864  9.907653
Al  0.822931  0.863043  8.132415
Al  2.794876  2.740829  8.021785
Al  4.669284 13.536498 10.012292
Al  2.781080 13.413437  8.052516
Al  4.611842  9.939721 10.018893
Al  1.000053  9.874389  9.924737
Al  2.831554  2.674983  4.633366
Al  0.857532 11.679858  4.651467
Al  4.716557  9.951466  6.323960
Al  2.756925  9.684367  4.535300
Al  6.304729  6.253872  4.769186
Al  4.714801  7.941938  8.113512
Al  2.808440  6.271095  4.515901
Al  0.810078  6.257518  6.340007
Al  4.543349  0.863826  0.906308
Al  6.362863  0.847999  2.828660
Al  2.647642  0.784823 13.525808
Al  0.903633  2.668155  2.644876
Al  6.245523 11.801827  2.762126
Al  0.892606 13.643318  2.653119
Al  2.881396 11.700945  2.610261
Al  6.239710  9.765754  0.898023
Al  4.719382  6.225585  2.631638
Al  2.683735  6.151192  0.871246
Al  2.710727  2.718084 11.713135
Al  6.283364 11.804186 13.503961
Al  2.773955 11.705866 13.543257
Al  2.815244  6.177820 11.654079
Al  2.752852  6.156058  8.258260
Al  2.774623  8.197019 13.519958
Ni  8.208715  6.244405 13.548231
Ni 10.032156  4.457056 13.560746
Ni 10.031171  6.278240 11.770484
Ni 11.860050  6.276521 13.557676
Ni 13.664626  4.476201 13.532192
Ni 13.647324  6.286823 11.754047
Ni  8.166691  9.964347 13.672867
Ni 10.029208  8.083973 13.571040
Ni 10.036480  9.874725 11.776143
Ni 11.865872  9.877421 13.567540
Ni 13.691489  8.078716 13.557899
Ni 13.677982  9.882461 11.760846
Ni  8.239640 13.459293 13.552780
Ni 10.070775 11.690043 13.541574
Ni 10.037069 13.500616 11.742523
Ni 11.863035 13.501781 13.524436
Ni 13.660389 11.684246 13.548966
Ni 13.671991 13.488424 11.729249
Ni  8.217585  2.658091 13.580150
Ni 10.064072  0.845889 13.534827
Ni 10.022797  2.655775 11.749680
Ni 11.849885  2.661361 13.526584
Ni 13.677052  0.849794 13.514740
Ni 13.663939  2.656618 11.738344
Ni  8.192509  6.246647  2.785244
Ni 10.042702  4.461010  2.698160
Ni 10.037737  6.246781  0.899144
Ni 11.844060  6.282284  2.671691
Ni 13.652494  4.489450  2.685075
Ni 13.684574  6.275743  0.877830
Ni  8.172285  9.978189  2.591138
Ni 10.026539  8.082882  2.696119
Ni 10.056318  9.886896  0.902399
Ni 11.865633  9.867044  2.700154
Ni 13.682370  8.074878  2.694689
Ni 13.688939  9.881173  0.907041
Ni  8.239674 13.525737  2.736736
Ni 10.085428 11.701792  2.724412
Ni 10.107053 13.530784  0.898869
Ni 11.890306 13.487206  2.708077
Ni 13.703241 11.677750  2.709161
Ni 13.649029 13.505501  0.855022
Ni  8.237807  2.571532  2.716593
Ni 10.088375  0.836133  2.706947
Ni 10.051029  2.651219  0.898312
Ni 11.854894  2.685844  2.693805
Ni 13.603005  0.883961  2.716830
Ni 13.623702  2.666437  0.843383
Ni  8.250701  6.260966  6.273112
Ni 10.058412  4.467020  6.331267
Ni 10.049703  6.274726  4.504016
Ni 11.853799  6.279590  6.331094
Ni 13.616795  4.435961  6.330575
Ni 13.616183  6.266248  4.474244
Ni  8.222680  9.905865  6.333650
Ni 10.034548  8.084759  6.323195
Ni 10.054007  9.905070  4.497979
Ni 11.834264  9.876844  6.324845
Ni 13.635833  8.101138  6.331403
Ni 13.667438  9.841813  4.517310
Ni  8.249053 13.499092  6.339347
Ni 10.060481 11.685171  6.350216
Ni 10.078874 13.489060  4.527887
Ni 11.855212 13.491084  6.348809
Ni 13.630888 11.668099  6.387890
Ni 13.661957 13.523404  4.541827
Ni  8.261564  2.642396  6.332312
Ni 10.080735  0.835989  6.366692
Ni 10.084119  2.640853  4.514960
Ni 11.835716  2.653197  6.339524
Ni 13.627485  0.861945  6.311783
Ni 13.629541  2.670584  4.529874
Ni  8.229570  6.280807  9.966982
Ni 10.027800  4.468079  9.959800
Ni 10.041884  6.284853  8.145285
Ni 11.826610  6.272535  9.977614
Ni 13.642059  4.472842  9.959578
Ni 13.611051  6.275457  8.185491
Ni  8.218324  9.860144  9.965390
Ni 10.033378  8.082678  9.965974
Ni 10.027822  9.872655  8.146101
Ni 11.854208  9.874635  9.959614
Ni 13.649730  8.067975  9.957136
Ni 13.646230  9.859833  8.132302
Ni  8.225563 13.508692  9.939081
Ni 10.047839 11.677591  9.937468
Ni 10.044997 13.492524  8.149862
Ni 11.840246 13.494182  9.954056
Ni 13.670935 11.697691  9.926933
Ni 13.637825 13.467862  8.143113
Ni  8.216709  2.657455  9.944316
Ni 10.032850  0.844702  9.945145
Ni 10.045027  2.652405  8.150396
Ni 11.838039  2.662917  9.963653
Ni 13.635672  0.836760  9.967678
Ni 13.598928  2.693637  8.150388
Ni  1.014389  6.282867 13.514959
Ni  2.791535  4.431145 13.536274
Ni  0.953873  4.483927 11.727536
Ni  4.557908  6.257819 13.565202
Ni  6.377186  4.437446 13.573359
Ni  4.599766  8.034472 11.756973
Ni  4.639710  4.419801 11.753044
Ni  0.993133  8.055387 11.741181
Ni  0.964880  9.900962 13.548938
Ni  4.618528  9.888961 13.513876
Ni  6.381521  8.041846 13.567260
Ni  6.429214  9.903062 11.789556
Ni  2.774230  9.896374 11.717714
Ni  0.944343 13.470993 13.548381
Ni  4.552186 11.724947 11.741021
Ni  2.761954 13.519240 11.702223
Ni  4.561883 13.589318 13.541628
Ni  4.610557 11.725012  0.867296
Ni  6.429025 13.528068 11.763069
Ni  0.968774  2.670688 13.523761
Ni  4.570289  0.901761 11.748251
Ni  0.991879  0.845355 11.690627
Ni  4.575140  2.614596 13.550056
Ni  6.406695  0.836951 13.543344
Ni  6.418212  2.641413 11.794124
Ni  2.788331  0.892251  9.857828
Ni  0.962564  6.242085  2.699854
Ni  2.803052  4.445504  2.723824
Ni  0.946509  4.441049  0.859812
Ni  6.419954  4.411309  2.761017
Ni  6.418444  6.245111  0.870012
Ni  4.593849  4.422779  0.887393
Ni  1.047017  9.907934  2.738487
Ni  2.801955  7.977794  2.677599
Ni  2.805558  9.883218  0.899501
Ni  1.015558  8.078116  0.895225
Ni  4.578753  9.831786  2.720361
Ni  6.430471  8.054956  2.761813
Ni  4.516891  8.004751  0.880113
Ni  0.926858  0.885596  0.861492
Ni  0.982890 11.690032  0.913318
Ni  4.543660 13.583621  2.729681
Ni  6.400828 13.550024  0.914523
Ni  2.752487 13.535649  0.903506
Ni  2.738507  0.925410  2.759091
Ni  2.776809  2.659137  0.864362
Ni  4.602015  2.670042  2.719167
Ni  6.396102  2.584524  0.927785
Ni  0.959690  4.461326  4.507778
Ni  6.432246  4.408532  6.337119
Ni  4.615168  4.491928  4.551997
Ni  0.994152  9.819128  6.351706
Ni  0.965540  8.011955  4.513486
Ni  2.817063  7.949976  6.423076
Ni  6.426925  8.122707  6.319093
Ni  6.437724  9.928248  4.465352
Ni  4.614698  8.049342  4.516219
Ni  0.953020 13.518979  6.349986
Ni  2.770795 11.620671  6.288548
Ni  2.687950 13.478249  4.473939
Ni  4.586345 13.484571  6.295171
Ni  6.417350 11.726305  6.334342
Ni  6.399301 13.504299  4.556711
Ni  4.501778 11.689039  4.539015
Ni  0.938690  2.698893  6.346094
Ni  2.749176  0.827272  6.392390
Ni  0.968702  0.905861  4.576828
Ni  4.638320  2.670006  6.334605
Ni  6.394524  0.835416  6.323467
Ni  6.404368  2.628752  4.542321
Ni  4.548646  0.832562  4.575660
Ni  0.943058  6.269019  9.957158
Ni  2.818725  4.362376  9.916769
Ni  2.784848  4.595460  6.325269
Ni  0.930154  4.470276  8.149301
Ni  4.657067  6.211589  9.910390
Ni  6.445211  4.491690  9.931942
Ni  6.473387  6.230374  8.080209
Ni  4.658385  4.473080  8.090140
Ni  0.983426 11.705977 11.729860
Ni  2.836794  8.064146  9.906295
Ni  2.879167  9.857518  8.097572
Ni  0.979913  8.047698  8.147188
Ni  6.388510  6.251496 11.765768
Ni  6.391668  9.881846  8.180506
Ni  6.396115  8.050699  9.964918
Ni  0.994795 13.500903  9.898599
Ni  2.783631 11.723912  9.919505
Ni  0.985060 11.649734  8.102499
Ni  6.423938 11.696275  9.962161
Ni  6.406138 13.500749  8.109599
Ni  4.631177 11.738675  8.147901
Ni  0.942397  2.662182  9.907909
Ni  4.619104  0.828083  8.106142
Ni  6.434225  0.842517  9.930990
Ni  6.456045  2.643107  8.097334
%ENDBLOCK POSITIONS_ABS

