#######################################################
#CASTEP cell file: /home/u2093113/Documents/kART/CASTEP/castep.cell
#Created using the Atomic Simulation Environment (ASE)#
#######################################################

%BLOCK LATTICE_CART
14.464828  0.000000  0.000000
 0.000000 14.464828  0.000000
 0.000000  0.000000 14.464828
%ENDBLOCK LATTICE_CART

%BLOCK POSITIONS_ABS
Al  8.230292  4.448778 11.769327
Al 11.848678  4.462344 11.757366
Al  8.226740  8.095767 11.809193
Al 11.857918  8.086199 11.769606
Al  8.311545 11.698127 11.693344
Al 11.882940 11.688044 11.742205
Al  8.250681  0.853625 11.761180
Al 11.862250  0.853268 11.741167
Al  8.225346  4.430311  0.894418
Al 11.848756  4.473558  0.895226
Al  8.288581  8.002071  0.874667
Al 11.854688  8.074564  0.904778
Al  8.399204 11.803603  0.915559
Al 11.874658 11.681932  0.908391
Al  8.305488  0.823826  0.834051
Al 11.884553  0.863189  0.891068
Al  8.181088  4.471669  4.506855
Al 11.827054  4.488329  4.514880
Al  8.166179  8.058990  4.506655
Al 11.820624  8.070361  4.506090
Al  8.300824 11.706595  4.579579
Al 11.890735 11.670975  4.527055
Al  8.350358  0.831663  4.620427
Al 11.837958  0.853034  4.529305
Al  8.258661  4.460141  8.158276
Al 11.807614  4.486086  8.139027
Al  8.208934  8.081078  8.166040
Al 11.826858  8.080295  8.139557
Al  8.233733 11.693530  8.157112
Al 11.841371 11.668280  8.154752
Al  8.252141  0.845037  8.132354
Al 11.879207  0.843252  8.152464
Al  4.764826  2.654235  9.919788
Al  0.824682  0.870706  8.118747
Al  2.804075  2.758761  8.010992
Al  4.663689 13.541213 10.010780
Al  2.781103 13.410803  8.046390
Al  4.608850  9.988318 10.067558
Al  0.988588  9.876031  9.926002
Al  2.857674  2.700151  4.642925
Al  0.868301 11.665037  4.650070
Al  4.729337  9.970395  6.340185
Al  2.792371  9.652945  4.532031
Al  4.927504  6.195219  6.155893
Al  4.713227  8.026942  8.243321
Al  2.769208  6.273626  4.415153
Al  0.820911  6.268013  6.335095
Al  4.546128  0.852511  0.902734
Al  6.374293  0.843350  2.822170
Al  2.640284  0.784602 13.533512
Al  0.915024  2.673680  2.656118
Al  6.250173 11.797511  2.758568
Al  0.898817 13.641446  2.664151
Al  2.888668 11.699924  2.614877
Al  6.236940  9.790715  0.862307
Al  4.887488  6.225882  2.747643
Al  2.727167  6.151679  0.904988
Al  2.697783  2.716198 11.719068
Al  6.288014 11.821617 13.496185
Al  2.762670 11.714454 13.551339
Al  2.800259  6.177194 11.664124
Al  2.761030  6.169265  8.304849
Al  2.766672  8.196254 13.531285
Ni  8.215160  6.242965 13.545350
Ni 10.046867  4.455264 13.564705
Ni 10.046517  6.275814 11.780679
Ni 11.860693  6.275295 13.566168
Ni 13.662009  4.478047 13.545275
Ni 13.640919  6.289412 11.755840
Ni  8.176248  9.976793 13.668697
Ni 10.043903  8.086087 13.570917
Ni 10.051922  9.881145 11.780869
Ni 11.866660  9.878150 13.575280
Ni 13.685899  8.076438 13.568721
Ni 13.674746  9.885293 11.765628
Ni  8.250756 13.462923 13.551416
Ni 10.081186 11.694193 13.548203
Ni 10.055411 13.507563 11.745982
Ni 11.870490 13.507302 13.535207
Ni 13.658086 11.687545 13.560936
Ni 13.672289 13.494454 11.732126
Ni  8.229868  2.650259 13.570882
Ni 10.077410  0.847531 13.543309
Ni 10.041032  2.656364 11.752254
Ni 11.855832  2.662458 13.536552
Ni 13.682835  0.857105 13.528931
Ni 13.667807  2.661546 11.741209
Ni  8.162648  6.246209  2.702128
Ni 10.014745  4.466151  2.709422
Ni 10.040731  6.249170  0.896502
Ni 11.823583  6.284464  2.689718
Ni 13.649464  4.492544  2.697706
Ni 13.674757  6.276097  0.888427
Ni  8.170455  9.994629  2.602044
Ni  9.987989  8.081310  2.707762
Ni 10.054022  9.887190  0.908557
Ni 11.849494  9.860085  2.714274
Ni 13.674167  8.076077  2.701036
Ni 13.685039  9.882271  0.918867
Ni  8.239568 13.524094  2.740038
Ni 10.081031 11.700441  2.732765
Ni 10.112006 13.532496  0.905472
Ni 11.889350 13.486795  2.720330
Ni 13.704617 11.674020  2.717694
Ni 13.653298 13.506759  0.872665
Ni  8.245339  2.566433  2.719939
Ni 10.086862  0.833618  2.713364
Ni 10.056540  2.650466  0.906982
Ni 11.849671  2.692056  2.713363
Ni 13.609420  0.887084  2.734497
Ni 13.625158  2.670889  0.859907
Ni  8.167345  6.265021  6.312265
Ni 10.017880  4.479634  6.317831
Ni  9.979126  6.275834  4.507174
Ni 11.837961  6.285116  6.322384
Ni 13.622948  4.446037  6.324844
Ni 13.614820  6.272396  4.473986
Ni  8.204085  9.889672  6.334676
Ni  9.993358  8.074866  6.316667
Ni 10.005440  9.874707  4.501360
Ni 11.816740  9.866886  6.320118
Ni 13.635476  8.103897  6.325466
Ni 13.662673  9.840314  4.521155
Ni  8.259950 13.504202  6.347969
Ni 10.054624 11.678707  6.350326
Ni 10.078403 13.487275  4.530047
Ni 11.855356 13.485825  6.342580
Ni 13.631264 11.654483  6.379214
Ni 13.665258 13.519858  4.543958
Ni  8.268407  2.646263  6.325229
Ni 10.087637  0.840223  6.366441
Ni 10.051058  2.669041  4.515424
Ni 11.826332  2.668126  6.331766
Ni 13.632610  0.872073  6.301945
Ni 13.635298  2.677517  4.534868
Ni  8.238408  6.280955  9.995870
Ni 10.033553  4.467841  9.966898
Ni 10.016927  6.288021  8.140088
Ni 11.818322  6.273230  9.965722
Ni 13.643208  4.480276  9.947080
Ni 13.612222  6.282863  8.176706
Ni  8.228604  9.873580  9.981341
Ni 10.035572  8.084381  9.973845
Ni 10.022127  9.869766  8.146881
Ni 11.857964  9.874021  9.951974
Ni 13.650257  8.066750  9.949274
Ni 13.649597  9.854963  8.120181
Ni  8.242257 13.516101  9.937181
Ni 10.060700 11.681649  9.941765
Ni 10.058863 13.495613  8.150099
Ni 11.847852 13.499703  9.948827
Ni 13.671644 11.701452  9.918999
Ni 13.642195 13.470493  8.128766
Ni  8.228830  2.654324  9.957415
Ni 10.049759  0.850711  9.946582
Ni 10.046156  2.659252  8.149638
Ni 11.846402  2.669310  9.953233
Ni 13.637149  0.842237  9.958282
Ni 13.602594  2.703959  8.135274
Ni  1.011336  6.282633 13.537011
Ni  2.786826  4.435683 13.546163
Ni  0.947506  4.487935 11.728126
Ni  4.551842  6.255051 13.556109
Ni  6.378329  4.430202 13.567858
Ni  4.593004  8.042676 11.767810
Ni  4.635305  4.411273 11.759570
Ni  0.980221  8.054183 11.753831
Ni  0.955971  9.903141 13.556684
Ni  4.605607  9.900641 13.503916
Ni  6.377116  8.047211 13.558782
Ni  6.431402  9.922213 11.802231
Ni  2.751979  9.911488 11.729859
Ni  0.941384 13.477111 13.559972
Ni  4.537599 11.753317 11.753244
Ni  2.748810 13.529679 11.702783
Ni  4.557625 13.598157 13.539933
Ni  4.611265 11.737966  0.856018
Ni  6.433444 13.539774 11.758275
Ni  0.969582  2.674318 13.535470
Ni  4.564003  0.902847 11.745355
Ni  0.986675  0.849429 11.689242
Ni  4.572208  2.611274 13.551389
Ni  6.413063  0.828415 13.534142
Ni  6.421473  2.634306 11.797803
Ni  2.779205  0.891606  9.849624
Ni  0.956235  6.244503  2.684824
Ni  2.825269  4.431948  2.718963
Ni  0.952158  4.446820  0.870289
Ni  6.438585  4.337420  2.679113
Ni  6.406430  6.244154  0.849814
Ni  4.605761  4.424345  0.895082
Ni  1.053824  9.906320  2.746528
Ni  2.823246  7.988288  2.662564
Ni  2.808434  9.886977  0.899659
Ni  1.015763  8.080494  0.900476
Ni  4.585897  9.842922  2.701173
Ni  6.453714  8.118959  2.675925
Ni  4.530180  7.999291  0.880625
Ni  0.930644  0.891551  0.876735
Ni  0.979029 11.688309  0.925274
Ni  4.553903 13.584350  2.735237
Ni  6.406870 13.548382  0.914411
Ni  2.752457 13.539434  0.912218
Ni  2.750325  0.926448  2.769789
Ni  2.784052  2.660854  0.866793
Ni  4.613832  2.643536  2.700406
Ni  6.406238  2.558967  0.898894
Ni  0.967641  4.466330  4.508972
Ni  6.468662  4.367393  6.355580
Ni  4.685488  4.449629  4.495379
Ni  1.022298  9.797793  6.342611
Ni  0.963838  8.016474  4.508023
Ni  2.901519  7.873510  6.418684
Ni  6.393774  8.127312  6.360184
Ni  6.444713  9.913432  4.473473
Ni  4.690900  8.048189  4.486164
Ni  0.959492 13.515486  6.342852
Ni  2.782590 11.613516  6.283306
Ni  2.699006 13.475423  4.474760
Ni  4.595378 13.482369  6.295219
Ni  6.431778 11.733372  6.341069
Ni  6.410194 13.504704  4.560339
Ni  4.517226 11.686116  4.537815
Ni  0.959634  2.715059  6.339299
Ni  2.760252  0.830933  6.387897
Ni  0.980439  0.911410  4.582381
Ni  4.655076  2.661538  6.344252
Ni  6.409769  0.839457  6.331006
Ni  6.426645  2.626613  4.537421
Ni  4.566510  0.835809  4.579355
Ni  0.939616  6.274289  9.961349
Ni  2.820315  4.352010  9.923776
Ni  2.825260  4.677100  6.310742
Ni  0.943188  4.481179  8.139081
Ni  4.650817  6.212836  9.960856
Ni  6.445328  4.486469  9.954752
Ni  6.457345  6.255623  8.159786
Ni  4.672992  4.466241  8.122264
Ni  0.971072 11.716237 11.732319
Ni  2.827562  8.084816  9.936202
Ni  2.893593  9.859236  8.099964
Ni  1.002597  8.047806  8.139067
Ni  6.394150  6.249909 11.780217
Ni  6.394994  9.902684  8.211615
Ni  6.412183  8.067396 10.015609
Ni  0.988150 13.507397  9.889831
Ni  2.768946 11.731698  9.921213
Ni  0.986337 11.641786  8.088758
Ni  6.433285 11.716439  9.975131
Ni  6.419902 13.506037  8.112691
Ni  4.638654 11.749804  8.154039
Ni  0.941451  2.665693  9.898280
Ni  4.631925  0.827865  8.107493
Ni  6.446840  0.839932  9.934777
Ni  6.472028  2.633610  8.116171
%ENDBLOCK POSITIONS_ABS

