#######################################################
#CASTEP cell file: /home/u2093113/Documents/kART/CASTEP/castep.cell
#Created using the Atomic Simulation Environment (ASE)#
#######################################################

%BLOCK LATTICE_CART
14.464828  0.000000  0.000000
 0.000000 14.464828  0.000000
 0.000000  0.000000 14.464828
%ENDBLOCK LATTICE_CART

%BLOCK POSITIONS_ABS
Al  8.224325  4.451290 11.763824
Al 11.844078  4.463192 11.757804
Al  8.219481  8.090899 11.801020
Al 11.855412  8.085876 11.770490
Al  8.303480 11.691366 11.691706
Al 11.878187 11.685775 11.742103
Al  8.242016  0.853308 11.760398
Al 11.857527  0.850784 11.739737
Al  8.218384  4.436885  0.909887
Al 11.852508  4.473001  0.885177
Al  8.284361  7.994667  0.890393
Al 11.860913  8.074613  0.898076
Al  8.397823 11.801912  0.915086
Al 11.876030 11.681963  0.902496
Al  8.300687  0.824584  0.833783
Al 11.882144  0.861133  0.881816
Al  8.241060  4.421011  4.512320
Al 11.836104  4.482112  4.511923
Al  8.227794  8.113302  4.503037
Al 11.833295  8.073092  4.504609
Al  8.301057 11.704924  4.576466
Al 11.897873 11.677463  4.526390
Al  8.347048  0.833838  4.620245
Al 11.844720  0.847933  4.528837
Al  8.262439  4.459413  8.145514
Al 11.814815  4.481930  8.147537
Al  8.214634  8.076254  8.152034
Al 11.833819  8.080548  8.145253
Al  8.227587 11.692098  8.154754
Al 11.841610 11.670435  8.157903
Al  8.241890  0.842178  8.130941
Al 11.874971  0.840735  8.157794
Al  4.767816  2.661549  9.913720
Al  0.823806  0.866875  8.125581
Al  2.799476  2.749795  8.016388
Al  4.666486 13.538855 10.011536
Al  2.781092 13.412120  8.049453
Al  4.610346  9.964020 10.043226
Al  0.994321  9.875210  9.925369
Al  2.844614  2.687567  4.638145
Al  0.862916 11.672447  4.650768
Al  4.722947  9.960930  6.332073
Al  2.774648  9.668656  4.533666
Al  5.616117  6.224546  5.462539
Al  4.714014  7.984440  8.178417
Al  2.788824  6.272361  4.465527
Al  0.815494  6.262765  6.337551
Al  4.544738  0.858168  0.904521
Al  6.368578  0.845675  2.825415
Al  2.643963  0.784713 13.529660
Al  0.909329  2.670917  2.650497
Al  6.247848 11.799669  2.760347
Al  0.895712 13.642382  2.658635
Al  2.885032 11.700434  2.612569
Al  6.238325  9.778235  0.880165
Al  4.803435  6.225733  2.689641
Al  2.705451  6.151435  0.888117
Al  2.704255  2.717141 11.716101
Al  6.285689 11.812902 13.500073
Al  2.768313 11.710160 13.547298
Al  2.807752  6.177507 11.659101
Al  2.756941  6.162662  8.281555
Al  2.770648  8.196637 13.525621
Ni  8.211937  6.243685 13.546790
Ni 10.039512  4.456160 13.562726
Ni 10.038844  6.277027 11.775581
Ni 11.860371  6.275908 13.561922
Ni 13.663317  4.477124 13.538733
Ni 13.644122  6.288118 11.754944
Ni  8.171469  9.970570 13.670782
Ni 10.036555  8.085030 13.570979
Ni 10.044201  9.877935 11.778506
Ni 11.866266  9.877786 13.571410
Ni 13.688694  8.077577 13.563310
Ni 13.676364  9.883877 11.763237
Ni  8.245198 13.461108 13.552098
Ni 10.075980 11.692118 13.544889
Ni 10.046240 13.504089 11.744252
Ni 11.866763 13.504542 13.529822
Ni 13.659238 11.685895 13.554951
Ni 13.672140 13.491439 11.730688
Ni  8.223726  2.654175 13.575516
Ni 10.070741  0.846710 13.539068
Ni 10.031914  2.656070 11.750967
Ni 11.852858  2.661910 13.531568
Ni 13.679943  0.853450 13.521835
Ni 13.665873  2.659082 11.739777
Ni  8.177579  6.246428  2.743686
Ni 10.028724  4.463580  2.703791
Ni 10.039234  6.247976  0.897823
Ni 11.833822  6.283374  2.680705
Ni 13.650979  4.490997  2.691390
Ni 13.679666  6.275920  0.883128
Ni  8.171370  9.986409  2.596591
Ni 10.007264  8.082096  2.701940
Ni 10.055170  9.887043  0.905478
Ni 11.857563  9.863564  2.707214
Ni 13.678269  8.075478  2.697863
Ni 13.686989  9.881722  0.912954
Ni  8.239621 13.524916  2.738387
Ni 10.083229 11.701116  2.728589
Ni 10.109529 13.531640  0.902171
Ni 11.889828 13.487001  2.714203
Ni 13.703929 11.675885  2.713428
Ni 13.651164 13.506130  0.863843
Ni  8.241573  2.568983  2.718266
Ni 10.087619  0.834875  2.710156
Ni 10.053784  2.650842  0.902647
Ni 11.852282  2.688950  2.703584
Ni 13.606212  0.885523  2.725664
Ni 13.624430  2.668663  0.851645
Ni  8.209023  6.262993  6.292688
Ni 10.038146  4.473327  6.324549
Ni 10.014415  6.275280  4.505595
Ni 11.845880  6.282353  6.326739
Ni 13.619871  4.440999  6.327709
Ni 13.615502  6.269322  4.474115
Ni  8.213382  9.897769  6.334163
Ni 10.013953  8.079813  6.319931
Ni 10.029723  9.889888  4.499670
Ni 11.825502  9.871865  6.322482
Ni 13.635655  8.102517  6.328435
Ni 13.665056  9.841063  4.519232
Ni  8.254501 13.501647  6.343658
Ni 10.057553 11.681939  6.350271
Ni 10.078638 13.488167  4.528967
Ni 11.855284 13.488454  6.345694
Ni 13.631076 11.661291  6.383552
Ni 13.663608 13.521631  4.542893
Ni  8.264986  2.644329  6.328771
Ni 10.084186  0.838106  6.366567
Ni 10.067588  2.654947  4.515192
Ni 11.831024  2.660661  6.335645
Ni 13.630048  0.867009  6.306864
Ni 13.632419  2.674051  4.532371
Ni  8.233989  6.280881  9.981426
Ni 10.030676  4.467960  9.963349
Ni 10.029405  6.286437  8.142687
Ni 11.822466  6.272883  9.971668
Ni 13.642634  4.476559  9.953329
Ni 13.611636  6.279160  8.181098
Ni  8.223464  9.866862  9.973366
Ni 10.034475  8.083529  9.969909
Ni 10.024975  9.871210  8.146491
Ni 11.856086  9.874328  9.955794
Ni 13.649993  8.067363  9.953205
Ni 13.647914  9.857398  8.126242
Ni  8.233910 13.512397  9.938131
Ni 10.054270 11.679620  9.939616
Ni 10.051930 13.494069  8.149981
Ni 11.844049 13.496942  9.951441
Ni 13.671290 11.699572  9.922966
Ni 13.640010 13.469178  8.135939
Ni  8.222769  2.655889  9.950866
Ni 10.041304  0.847707  9.945864
Ni 10.045592  2.655829  8.150017
Ni 11.842220  2.666114  9.958443
Ni 13.636411  0.839499  9.962980
Ni 13.600761  2.698798  8.142831
Ni  1.012862  6.282750 13.525985
Ni  2.789181  4.433414 13.541218
Ni  0.950689  4.485931 11.727831
Ni  4.554875  6.256435 13.560656
Ni  6.377757  4.433824 13.570608
Ni  4.596385  8.038574 11.762392
Ni  4.637507  4.415537 11.756307
Ni  0.986677  8.054785 11.747506
Ni  0.960426  9.902052 13.552811
Ni  4.612067  9.894801 13.508896
Ni  6.379319  8.044529 13.563021
Ni  6.430308  9.912637 11.795894
Ni  2.763104  9.903931 11.723786
Ni  0.942864 13.474052 13.554176
Ni  4.544893 11.739132 11.747132
Ni  2.755382 13.524460 11.702503
Ni  4.559754 13.593737 13.540780
Ni  4.610911 11.731489  0.861657
Ni  6.431234 13.533921 11.760672
Ni  0.969178  2.672503 13.529616
Ni  4.567146  0.902304 11.746803
Ni  0.989277  0.847392 11.689934
Ni  4.573674  2.612935 13.550723
Ni  6.409879  0.832683 13.538743
Ni  6.419842  2.637860 11.795963
Ni  2.783768  0.891928  9.853726
Ni  0.959400  6.243294  2.692339
Ni  2.814161  4.438726  2.721394
Ni  0.949333  4.443935  0.865050
Ni  6.429269  4.374365  2.720065
Ni  6.412437  6.244633  0.859913
Ni  4.599805  4.423562  0.891238
Ni  1.050420  9.907127  2.742508
Ni  2.812601  7.983041  2.670082
Ni  2.806996  9.885097  0.899580
Ni  1.015660  8.079305  0.897850
Ni  4.582325  9.837354  2.710767
Ni  6.442092  8.086958  2.718869
Ni  4.523535  8.002021  0.880369
Ni  0.928751  0.888573  0.869113
Ni  0.980959 11.689171  0.919296
Ni  4.548782 13.583985  2.732459
Ni  6.403849 13.549203  0.914467
Ni  2.752472 13.537541  0.907862
Ni  2.744416  0.925929  2.764440
Ni  2.780430  2.659996  0.865578
Ni  4.607923  2.656789  2.709786
Ni  6.401170  2.571746  0.913339
Ni  0.963666  4.463828  4.508375
Ni  6.450454  4.387962  6.346349
Ni  4.650328  4.470779  4.523688
Ni  1.008225  9.808460  6.347158
Ni  0.964689  8.014215  4.510754
Ni  2.859291  7.911743  6.420880
Ni  6.410349  8.125009  6.339638
Ni  6.441218  9.920840  4.469412
Ni  4.652799  8.048766  4.501191
Ni  0.956256 13.517233  6.346419
Ni  2.776693 11.617094  6.285927
Ni  2.693478 13.476836  4.474349
Ni  4.590862 13.483470  6.295195
Ni  6.424564 11.729838  6.337705
Ni  6.404747 13.504502  4.558525
Ni  4.509502 11.687578  4.538415
Ni  0.949162  2.706976  6.342696
Ni  2.754714  0.829103  6.390143
Ni  0.974571  0.908635  4.579604
Ni  4.646698  2.665772  6.339429
Ni  6.402147  0.837437  6.327236
Ni  6.415506  2.627682  4.539871
Ni  4.557578  0.834185  4.577508
Ni  0.941337  6.271654  9.959253
Ni  2.819520  4.357193  9.920273
Ni  2.805054  4.636280  6.318006
Ni  0.936671  4.475727  8.144191
Ni  4.653942  6.212213  9.935623
Ni  6.445269  4.489080  9.943347
Ni  6.465366  6.242999  8.119998
Ni  4.665688  4.469661  8.106202
Ni  0.977249 11.711107 11.731089
Ni  2.832178  8.074481  9.921248
Ni  2.886380  9.858377  8.098768
Ni  0.991255  8.047752  8.143127
Ni  6.391330  6.250703 11.772993
Ni  6.393331  9.892265  8.196061
Ni  6.404149  8.059048  9.990263
Ni  0.991473 13.504150  9.894215
Ni  2.776289 11.727805  9.920359
Ni  0.985699 11.645760  8.095628
Ni  6.428612 11.706357  9.968646
Ni  6.413020 13.503393  8.111145
Ni  4.634916 11.744239  8.150970
Ni  0.941924  2.663937  9.903095
Ni  4.625514  0.827974  8.106818
Ni  6.440532  0.841225  9.932883
Ni  6.464037  2.638359  8.106753
%ENDBLOCK POSITIONS_ABS

