%block lattice_abc 
  14.46482773 14.46482773 14.46482773 #lattice params 
 90.0  90.0  90.0 
     %endblock lattice_abc 
     fix_all_cell : true 
     %BLOCK POSITIONS_ABS 
Al  8.230292  4.448778 11.769327
 Al 11.848678  4.462344 11.757366
 Al  8.226740  8.095767 11.809193
 Al 11.857918  8.086199 11.769606
 Al  8.311545 11.698127 11.693344
 Al 11.882940 11.688044 11.742205
 Al  8.250681  0.853625 11.761180
 Al 11.862250  0.853268 11.741167
 Al  8.225346  4.430311  0.894418
 Al 11.848756  4.473558  0.895226
 Al  8.288581  8.002071  0.874667
 Al 11.854688  8.074564  0.904778
 Al  8.399204 11.803603  0.915559
 Al 11.874658 11.681932  0.908391
 Al  8.305488  0.823826  0.834051
 Al 11.884553  0.863189  0.891068
 Al  8.181088  4.471669  4.506855
 Al 11.827054  4.488329  4.514880
 Al  8.166179  8.058990  4.506655
 Al 11.820624  8.070361  4.506090
 Al  8.300824 11.706595  4.579579
 Al 11.890735 11.670975  4.527055
 Al  8.350358  0.831663  4.620427
 Al 11.837958  0.853034  4.529305
 Al  8.258661  4.460141  8.158276
 Al 11.807614  4.486086  8.139027
 Al  8.208934  8.081078  8.166040
 Al 11.826858  8.080295  8.139557
 Al  8.233733 11.693530  8.157112
 Al 11.841371 11.668280  8.154752
 Al  8.252141  0.845037  8.132354
 Al 11.879207  0.843252  8.152464
 Al  4.764826  2.654235  9.919788
 Al  0.824682  0.870706  8.118747
 Al  2.804075  2.758761  8.010992
 Al  4.663689 13.541213 10.010780
 Al  2.781103 13.410803  8.046390
 Al  4.608850  9.988318 10.067558
 Al  0.988588  9.876031  9.926002
 Al  2.857674  2.700151  4.642925
 Al  0.868301 11.665037  4.650070
 Al  4.729337  9.970395  6.340185
 Al  2.792371  9.652945  4.532031
 Al  4.927504  6.195219  6.155893
 Al  4.713227  8.026942  8.243321
 Al  2.769208  6.273626  4.415153
 Al  0.820911  6.268013  6.335095
 Al  4.546128  0.852511  0.902734
 Al  6.374293  0.843350  2.822170
 Al  2.640284  0.784602 13.533512
 Al  0.915024  2.673680  2.656118
 Al  6.250173 11.797511  2.758568
 Al  0.898817 13.641446  2.664151
 Al  2.888668 11.699924  2.614877
 Al  6.236940  9.790715  0.862307
 Al  4.887488  6.225882  2.747643
 Al  2.727167  6.151679  0.904988
 Al  2.697783  2.716198 11.719068
 Al  6.288014 11.821617 13.496185
 Al  2.762670 11.714454 13.551339
 Al  2.800259  6.177194 11.664124
 Al  2.761030  6.169265  8.304849
 Al  2.766672  8.196254 13.531285
 Ni  8.215160  6.242965 13.545350
 Ni 10.046867  4.455264 13.564705
 Ni 10.046517  6.275814 11.780679
 Ni 11.860693  6.275295 13.566168
 Ni 13.662009  4.478047 13.545275
 Ni 13.640919  6.289412 11.755840
 Ni  8.176248  9.976793 13.668697
 Ni 10.043903  8.086087 13.570917
 Ni 10.051922  9.881145 11.780869
 Ni 11.866660  9.878150 13.575280
 Ni 13.685899  8.076438 13.568721
 Ni 13.674746  9.885293 11.765628
 Ni  8.250756 13.462923 13.551416
 Ni 10.081186 11.694193 13.548203
 Ni 10.055411 13.507563 11.745982
 Ni 11.870490 13.507302 13.535207
 Ni 13.658086 11.687545 13.560936
 Ni 13.672289 13.494454 11.732126
 Ni  8.229868  2.650259 13.570882
 Ni 10.077410  0.847531 13.543309
 Ni 10.041032  2.656364 11.752254
 Ni 11.855832  2.662458 13.536552
 Ni 13.682835  0.857105 13.528931
 Ni 13.667807  2.661546 11.741209
 Ni  8.162648  6.246209  2.702128
 Ni 10.014745  4.466151  2.709422
 Ni 10.040731  6.249170  0.896502
 Ni 11.823583  6.284464  2.689718
 Ni 13.649464  4.492544  2.697706
 Ni 13.674757  6.276097  0.888427
 Ni  8.170455  9.994629  2.602044
 Ni  9.987989  8.081310  2.707762
 Ni 10.054022  9.887190  0.908557
 Ni 11.849494  9.860085  2.714274
 Ni 13.674167  8.076077  2.701036
 Ni 13.685039  9.882271  0.918867
 Ni  8.239568 13.524094  2.740038
 Ni 10.081031 11.700441  2.732765
 Ni 10.112006 13.532496  0.905472
 Ni 11.889350 13.486795  2.720330
 Ni 13.704617 11.674020  2.717694
 Ni 13.653298 13.506759  0.872665
 Ni  8.245339  2.566433  2.719939
 Ni 10.086862  0.833618  2.713364
 Ni 10.056540  2.650466  0.906982
 Ni 11.849671  2.692056  2.713363
 Ni 13.609420  0.887084  2.734497
 Ni 13.625158  2.670889  0.859907
 Ni  8.167345  6.265021  6.312265
 Ni 10.017880  4.479634  6.317831
 Ni  9.979126  6.275834  4.507174
 Ni 11.837961  6.285116  6.322384
 Ni 13.622948  4.446037  6.324844
 Ni 13.614820  6.272396  4.473986
 Ni  8.204085  9.889672  6.334676
 Ni  9.993358  8.074866  6.316667
 Ni 10.005440  9.874707  4.501360
 Ni 11.816740  9.866886  6.320118
 Ni 13.635476  8.103897  6.325466
 Ni 13.662673  9.840314  4.521155
 Ni  8.259950 13.504202  6.347969
 Ni 10.054624 11.678707  6.350326
 Ni 10.078403 13.487275  4.530047
 Ni 11.855356 13.485825  6.342580
 Ni 13.631264 11.654483  6.379214
 Ni 13.665258 13.519858  4.543958
 Ni  8.268407  2.646263  6.325229
 Ni 10.087637  0.840223  6.366441
 Ni 10.051058  2.669041  4.515424
 Ni 11.826332  2.668126  6.331766
 Ni 13.632610  0.872073  6.301945
 Ni 13.635298  2.677517  4.534868
 Ni  8.238408  6.280955  9.995870
 Ni 10.033553  4.467841  9.966898
 Ni 10.016927  6.288021  8.140088
 Ni 11.818322  6.273230  9.965722
 Ni 13.643208  4.480276  9.947080
 Ni 13.612222  6.282863  8.176706
 Ni  8.228604  9.873580  9.981341
 Ni 10.035572  8.084381  9.973845
 Ni 10.022127  9.869766  8.146881
 Ni 11.857964  9.874021  9.951974
 Ni 13.650257  8.066750  9.949274
 Ni 13.649597  9.854963  8.120181
 Ni  8.242257 13.516101  9.937181
 Ni 10.060700 11.681649  9.941765
 Ni 10.058863 13.495613  8.150099
 Ni 11.847852 13.499703  9.948827
 Ni 13.671644 11.701452  9.918999
 Ni 13.642195 13.470493  8.128766
 Ni  8.228830  2.654324  9.957415
 Ni 10.049759  0.850711  9.946582
 Ni 10.046156  2.659252  8.149638
 Ni 11.846402  2.669310  9.953233
 Ni 13.637149  0.842237  9.958282
 Ni 13.602594  2.703959  8.135274
 Ni  1.011336  6.282633 13.537011
 Ni  2.786826  4.435683 13.546163
 Ni  0.947506  4.487935 11.728126
 Ni  4.551842  6.255051 13.556109
 Ni  6.378329  4.430202 13.567858
 Ni  4.593004  8.042676 11.767810
 Ni  4.635305  4.411273 11.759570
 Ni  0.980221  8.054183 11.753831
 Ni  0.955971  9.903141 13.556684
 Ni  4.605607  9.900641 13.503916
 Ni  6.377116  8.047211 13.558782
 Ni  6.431402  9.922213 11.802231
 Ni  2.751979  9.911488 11.729859
 Ni  0.941384 13.477111 13.559972
 Ni  4.537599 11.753317 11.753244
 Ni  2.748810 13.529679 11.702783
 Ni  4.557625 13.598157 13.539933
 Ni  4.611265 11.737966  0.856018
 Ni  6.433444 13.539774 11.758275
 Ni  0.969582  2.674318 13.535470
 Ni  4.564003  0.902847 11.745355
 Ni  0.986675  0.849429 11.689242
 Ni  4.572208  2.611274 13.551389
 Ni  6.413063  0.828415 13.534142
 Ni  6.421473  2.634306 11.797803
 Ni  2.779205  0.891606  9.849624
 Ni  0.956235  6.244503  2.684824
 Ni  2.825269  4.431948  2.718963
 Ni  0.952158  4.446820  0.870289
 Ni  6.438585  4.337420  2.679113
 Ni  6.406430  6.244154  0.849814
 Ni  4.605761  4.424345  0.895082
 Ni  1.053824  9.906320  2.746528
 Ni  2.823246  7.988288  2.662564
 Ni  2.808434  9.886977  0.899659
 Ni  1.015763  8.080494  0.900476
 Ni  4.585897  9.842922  2.701173
 Ni  6.453714  8.118959  2.675925
 Ni  4.530180  7.999291  0.880625
 Ni  0.930644  0.891551  0.876735
 Ni  0.979029 11.688309  0.925274
 Ni  4.553903 13.584350  2.735237
 Ni  6.406870 13.548382  0.914411
 Ni  2.752457 13.539434  0.912218
 Ni  2.750325  0.926448  2.769789
 Ni  2.784052  2.660854  0.866793
 Ni  4.613832  2.643536  2.700406
 Ni  6.406238  2.558967  0.898894
 Ni  0.967641  4.466330  4.508972
 Ni  6.468662  4.367393  6.355580
 Ni  4.685488  4.449629  4.495379
 Ni  1.022298  9.797793  6.342611
 Ni  0.963838  8.016474  4.508023
 Ni  2.901519  7.873510  6.418684
 Ni  6.393774  8.127312  6.360184
 Ni  6.444713  9.913432  4.473473
 Ni  4.690900  8.048189  4.486164
 Ni  0.959492 13.515486  6.342852
 Ni  2.782590 11.613516  6.283306
 Ni  2.699006 13.475423  4.474760
 Ni  4.595378 13.482369  6.295219
 Ni  6.431778 11.733372  6.341069
 Ni  6.410194 13.504704  4.560339
 Ni  4.517226 11.686116  4.537815
 Ni  0.959634  2.715059  6.339299
 Ni  2.760252  0.830933  6.387897
 Ni  0.980439  0.911410  4.582381
 Ni  4.655076  2.661538  6.344252
 Ni  6.409769  0.839457  6.331006
 Ni  6.426645  2.626613  4.537421
 Ni  4.566510  0.835809  4.579355
 Ni  0.939616  6.274289  9.961349
 Ni  2.820315  4.352010  9.923776
 Ni  2.825260  4.677100  6.310742
 Ni  0.943188  4.481179  8.139081
 Ni  4.650817  6.212836  9.960856
 Ni  6.445328  4.486469  9.954752
 Ni  6.457345  6.255623  8.159786
 Ni  4.672992  4.466241  8.122264
 Ni  0.971072 11.716237 11.732319
 Ni  2.827562  8.084816  9.936202
 Ni  2.893593  9.859236  8.099964
 Ni  1.002597  8.047806  8.139067
 Ni  6.394150  6.249909 11.780217
 Ni  6.394994  9.902684  8.211615
 Ni  6.412183  8.067396 10.015609
 Ni  0.988150 13.507397  9.889831
 Ni  2.768946 11.731698  9.921213
 Ni  0.986337 11.641786  8.088758
 Ni  6.433285 11.716439  9.975131
 Ni  6.419902 13.506037  8.112691
 Ni  4.638654 11.749804  8.154039
 Ni  0.941451  2.665693  9.898280
 Ni  4.631925  0.827865  8.107493
 Ni  6.446840  0.839932  9.934777
 Ni  6.472028  2.633610  8.116171
 %ENDBLOCK POSITIONS_ABS
 
%block positions_abs_product 
     ang 
Al  8.218357  4.453802 11.758321
 Al 11.839478  4.464040 11.758243
 Al  8.212222  8.086031 11.792848
 Al 11.852906  8.085554 11.771374
 Al  8.295416 11.684605 11.690067
 Al 11.873433 11.683505 11.742000
 Al  8.233352  0.852991 11.759617
 Al 11.852805  0.848300 11.738307
 Al  8.211422  4.443458  0.925355
 Al 11.856259  4.472444  0.875128
 Al  8.280140  7.987264  0.906119
 Al 11.867139  8.074663  0.891374
 Al  8.396442 11.800221  0.914614
 Al 11.877401 11.681993  0.896601
 Al  8.295887  0.825341  0.833514
 Al 11.879735  0.859078  0.872565
 Al  8.301032  4.370354  4.517785
 Al 11.845153  4.475895  4.508966
 Al  8.289409  8.167615  4.499418
 Al 11.845966  8.075824  4.503128
 Al  8.301291 11.703252  4.573354
 Al 11.905010 11.683952  4.525726
 Al  8.343739  0.836013  4.620063
 Al 11.851482  0.842831  4.528369
 Al  8.266216  4.458684  8.132752
 Al 11.822016  4.477774  8.156046
 Al  8.220334  8.071430  8.138028
 Al 11.840780  8.080802  8.150949
 Al  8.221441 11.690667  8.152395
 Al 11.841849 11.672591  8.161055
 Al  8.231638  0.839318  8.129528
 Al 11.870735  0.838217  8.163124
 Al  4.770807  2.668864  9.907653
 Al  0.822931  0.863043  8.132415
 Al  2.794876  2.740829  8.021785
 Al  4.669284 13.536498 10.012292
 Al  2.781080 13.413437  8.052516
 Al  4.611842  9.939721 10.018893
 Al  1.000053  9.874389  9.924737
 Al  2.831554  2.674983  4.633366
 Al  0.857532 11.679858  4.651467
 Al  4.716557  9.951466  6.323960
 Al  2.756925  9.684367  4.535300
 Al  6.304729  6.253872  4.769186
 Al  4.714801  7.941938  8.113512
 Al  2.808440  6.271095  4.515901
 Al  0.810078  6.257518  6.340007
 Al  4.543349  0.863826  0.906308
 Al  6.362863  0.847999  2.828660
 Al  2.647642  0.784823 13.525808
 Al  0.903633  2.668155  2.644876
 Al  6.245523 11.801827  2.762126
 Al  0.892606 13.643318  2.653119
 Al  2.881396 11.700945  2.610261
 Al  6.239710  9.765754  0.898023
 Al  4.719382  6.225585  2.631638
 Al  2.683735  6.151192  0.871246
 Al  2.710727  2.718084 11.713135
 Al  6.283364 11.804186 13.503961
 Al  2.773955 11.705866 13.543257
 Al  2.815244  6.177820 11.654079
 Al  2.752852  6.156058  8.258260
 Al  2.774623  8.197019 13.519958
 Ni  8.208715  6.244405 13.548231
 Ni 10.032156  4.457056 13.560746
 Ni 10.031171  6.278240 11.770484
 Ni 11.860050  6.276521 13.557676
 Ni 13.664626  4.476201 13.532192
 Ni 13.647324  6.286823 11.754047
 Ni  8.166691  9.964347 13.672867
 Ni 10.029208  8.083973 13.571040
 Ni 10.036480  9.874725 11.776143
 Ni 11.865872  9.877421 13.567540
 Ni 13.691489  8.078716 13.557899
 Ni 13.677982  9.882461 11.760846
 Ni  8.239640 13.459293 13.552780
 Ni 10.070775 11.690043 13.541574
 Ni 10.037069 13.500616 11.742523
 Ni 11.863035 13.501781 13.524436
 Ni 13.660389 11.684246 13.548966
 Ni 13.671991 13.488424 11.729249
 Ni  8.217585  2.658091 13.580150
 Ni 10.064072  0.845889 13.534827
 Ni 10.022797  2.655775 11.749680
 Ni 11.849885  2.661361 13.526584
 Ni 13.677052  0.849794 13.514740
 Ni 13.663939  2.656618 11.738344
 Ni  8.192509  6.246647  2.785244
 Ni 10.042702  4.461010  2.698160
 Ni 10.037737  6.246781  0.899144
 Ni 11.844060  6.282284  2.671691
 Ni 13.652494  4.489450  2.685075
 Ni 13.684574  6.275743  0.877830
 Ni  8.172285  9.978189  2.591138
 Ni 10.026539  8.082882  2.696119
 Ni 10.056318  9.886896  0.902399
 Ni 11.865633  9.867044  2.700154
 Ni 13.682370  8.074878  2.694689
 Ni 13.688939  9.881173  0.907041
 Ni  8.239674 13.525737  2.736736
 Ni 10.085428 11.701792  2.724412
 Ni 10.107053 13.530784  0.898869
 Ni 11.890306 13.487206  2.708077
 Ni 13.703241 11.677750  2.709161
 Ni 13.649029 13.505501  0.855022
 Ni  8.237807  2.571532  2.716593
 Ni 10.088375  0.836133  2.706947
 Ni 10.051029  2.651219  0.898312
 Ni 11.854894  2.685844  2.693805
 Ni 13.603005  0.883961  2.716830
 Ni 13.623702  2.666437  0.843383
 Ni  8.250701  6.260966  6.273112
 Ni 10.058412  4.467020  6.331267
 Ni 10.049703  6.274726  4.504016
 Ni 11.853799  6.279590  6.331094
 Ni 13.616795  4.435961  6.330575
 Ni 13.616183  6.266248  4.474244
 Ni  8.222680  9.905865  6.333650
 Ni 10.034548  8.084759  6.323195
 Ni 10.054007  9.905070  4.497979
 Ni 11.834264  9.876844  6.324845
 Ni 13.635833  8.101138  6.331403
 Ni 13.667438  9.841813  4.517310
 Ni  8.249053 13.499092  6.339347
 Ni 10.060481 11.685171  6.350216
 Ni 10.078874 13.489060  4.527887
 Ni 11.855212 13.491084  6.348809
 Ni 13.630888 11.668099  6.387890
 Ni 13.661957 13.523404  4.541827
 Ni  8.261564  2.642396  6.332312
 Ni 10.080735  0.835989  6.366692
 Ni 10.084119  2.640853  4.514960
 Ni 11.835716  2.653197  6.339524
 Ni 13.627485  0.861945  6.311783
 Ni 13.629541  2.670584  4.529874
 Ni  8.229570  6.280807  9.966982
 Ni 10.027800  4.468079  9.959800
 Ni 10.041884  6.284853  8.145285
 Ni 11.826610  6.272535  9.977614
 Ni 13.642059  4.472842  9.959578
 Ni 13.611051  6.275457  8.185491
 Ni  8.218324  9.860144  9.965390
 Ni 10.033378  8.082678  9.965974
 Ni 10.027822  9.872655  8.146101
 Ni 11.854208  9.874635  9.959614
 Ni 13.649730  8.067975  9.957136
 Ni 13.646230  9.859833  8.132302
 Ni  8.225563 13.508692  9.939081
 Ni 10.047839 11.677591  9.937468
 Ni 10.044997 13.492524  8.149862
 Ni 11.840246 13.494182  9.954056
 Ni 13.670935 11.697691  9.926933
 Ni 13.637825 13.467862  8.143113
 Ni  8.216709  2.657455  9.944316
 Ni 10.032850  0.844702  9.945145
 Ni 10.045027  2.652405  8.150396
 Ni 11.838039  2.662917  9.963653
 Ni 13.635672  0.836760  9.967678
 Ni 13.598928  2.693637  8.150388
 Ni  1.014389  6.282867 13.514959
 Ni  2.791535  4.431145 13.536274
 Ni  0.953873  4.483927 11.727536
 Ni  4.557908  6.257819 13.565202
 Ni  6.377186  4.437446 13.573359
 Ni  4.599766  8.034472 11.756973
 Ni  4.639710  4.419801 11.753044
 Ni  0.993133  8.055387 11.741181
 Ni  0.964880  9.900962 13.548938
 Ni  4.618528  9.888961 13.513876
 Ni  6.381521  8.041846 13.567260
 Ni  6.429214  9.903062 11.789556
 Ni  2.774230  9.896374 11.717714
 Ni  0.944343 13.470993 13.548381
 Ni  4.552186 11.724947 11.741021
 Ni  2.761954 13.519240 11.702223
 Ni  4.561883 13.589318 13.541628
 Ni  4.610557 11.725012  0.867296
 Ni  6.429025 13.528068 11.763069
 Ni  0.968774  2.670688 13.523761
 Ni  4.570289  0.901761 11.748251
 Ni  0.991879  0.845355 11.690627
 Ni  4.575140  2.614596 13.550056
 Ni  6.406695  0.836951 13.543344
 Ni  6.418212  2.641413 11.794124
 Ni  2.788331  0.892251  9.857828
 Ni  0.962564  6.242085  2.699854
 Ni  2.803052  4.445504  2.723824
 Ni  0.946509  4.441049  0.859812
 Ni  6.419954  4.411309  2.761017
 Ni  6.418444  6.245111  0.870012
 Ni  4.593849  4.422779  0.887393
 Ni  1.047017  9.907934  2.738487
 Ni  2.801955  7.977794  2.677599
 Ni  2.805558  9.883218  0.899501
 Ni  1.015558  8.078116  0.895225
 Ni  4.578753  9.831786  2.720361
 Ni  6.430471  8.054956  2.761813
 Ni  4.516891  8.004751  0.880113
 Ni  0.926858  0.885596  0.861492
 Ni  0.982890 11.690032  0.913318
 Ni  4.543660 13.583621  2.729681
 Ni  6.400828 13.550024  0.914523
 Ni  2.752487 13.535649  0.903506
 Ni  2.738507  0.925410  2.759091
 Ni  2.776809  2.659137  0.864362
 Ni  4.602015  2.670042  2.719167
 Ni  6.396102  2.584524  0.927785
 Ni  0.959690  4.461326  4.507778
 Ni  6.432246  4.408532  6.337119
 Ni  4.615168  4.491928  4.551997
 Ni  0.994152  9.819128  6.351706
 Ni  0.965540  8.011955  4.513486
 Ni  2.817063  7.949976  6.423076
 Ni  6.426925  8.122707  6.319093
 Ni  6.437724  9.928248  4.465352
 Ni  4.614698  8.049342  4.516219
 Ni  0.953020 13.518979  6.349986
 Ni  2.770795 11.620671  6.288548
 Ni  2.687950 13.478249  4.473939
 Ni  4.586345 13.484571  6.295171
 Ni  6.417350 11.726305  6.334342
 Ni  6.399301 13.504299  4.556711
 Ni  4.501778 11.689039  4.539015
 Ni  0.938690  2.698893  6.346094
 Ni  2.749176  0.827272  6.392390
 Ni  0.968702  0.905861  4.576828
 Ni  4.638320  2.670006  6.334605
 Ni  6.394524  0.835416  6.323467
 Ni  6.404368  2.628752  4.542321
 Ni  4.548646  0.832562  4.575660
 Ni  0.943058  6.269019  9.957158
 Ni  2.818725  4.362376  9.916769
 Ni  2.784848  4.595460  6.325269
 Ni  0.930154  4.470276  8.149301
 Ni  4.657067  6.211589  9.910390
 Ni  6.445211  4.491690  9.931942
 Ni  6.473387  6.230374  8.080209
 Ni  4.658385  4.473080  8.090140
 Ni  0.983426 11.705977 11.729860
 Ni  2.836794  8.064146  9.906295
 Ni  2.879167  9.857518  8.097572
 Ni  0.979913  8.047698  8.147188
 Ni  6.388510  6.251496 11.765768
 Ni  6.391668  9.881846  8.180506
 Ni  6.396115  8.050699  9.964918
 Ni  0.994795 13.500903  9.898599
 Ni  2.783631 11.723912  9.919505
 Ni  0.985060 11.649734  8.102499
 Ni  6.423938 11.696275  9.962161
 Ni  6.406138 13.500749  8.109599
 Ni  4.631177 11.738675  8.147901
 Ni  0.942397  2.662182  9.907909
 Ni  4.619104  0.828083  8.106142
 Ni  6.434225  0.842517  9.930990
 Ni  6.456045  2.643107  8.097334
%endblock positions_abs_product 
%block positions_abs_intermediate 
     ang 
Al  8.224325  4.451290 11.763824
 Al 11.844078  4.463192 11.757804
 Al  8.219481  8.090899 11.801020
 Al 11.855412  8.085876 11.770490
 Al  8.303480 11.691366 11.691706
 Al 11.878187 11.685775 11.742103
 Al  8.242016  0.853308 11.760398
 Al 11.857527  0.850784 11.739737
 Al  8.218384  4.436885  0.909887
 Al 11.852508  4.473001  0.885177
 Al  8.284361  7.994667  0.890393
 Al 11.860913  8.074613  0.898076
 Al  8.397823 11.801912  0.915086
 Al 11.876030 11.681963  0.902496
 Al  8.300687  0.824584  0.833783
 Al 11.882144  0.861133  0.881816
 Al  8.241060  4.421011  4.512320
 Al 11.836104  4.482112  4.511923
 Al  8.227794  8.113302  4.503037
 Al 11.833295  8.073092  4.504609
 Al  8.301057 11.704924  4.576466
 Al 11.897873 11.677463  4.526390
 Al  8.347048  0.833838  4.620245
 Al 11.844720  0.847933  4.528837
 Al  8.262439  4.459413  8.145514
 Al 11.814815  4.481930  8.147537
 Al  8.214634  8.076254  8.152034
 Al 11.833819  8.080548  8.145253
 Al  8.227587 11.692098  8.154754
 Al 11.841610 11.670435  8.157903
 Al  8.241890  0.842178  8.130941
 Al 11.874971  0.840735  8.157794
 Al  4.767816  2.661549  9.913720
 Al  0.823806  0.866875  8.125581
 Al  2.799476  2.749795  8.016388
 Al  4.666486 13.538855 10.011536
 Al  2.781092 13.412120  8.049453
 Al  4.610346  9.964020 10.043226
 Al  0.994321  9.875210  9.925369
 Al  2.844614  2.687567  4.638145
 Al  0.862916 11.672447  4.650768
 Al  4.722947  9.960930  6.332073
 Al  2.774648  9.668656  4.533666
 Al  5.616117  6.224546  5.462539
 Al  4.714014  7.984440  8.178417
 Al  2.788824  6.272361  4.465527
 Al  0.815494  6.262765  6.337551
 Al  4.544738  0.858168  0.904521
 Al  6.368578  0.845675  2.825415
 Al  2.643963  0.784713 13.529660
 Al  0.909329  2.670917  2.650497
 Al  6.247848 11.799669  2.760347
 Al  0.895712 13.642382  2.658635
 Al  2.885032 11.700434  2.612569
 Al  6.238325  9.778235  0.880165
 Al  4.803435  6.225733  2.689641
 Al  2.705451  6.151435  0.888117
 Al  2.704255  2.717141 11.716101
 Al  6.285689 11.812902 13.500073
 Al  2.768313 11.710160 13.547298
 Al  2.807752  6.177507 11.659101
 Al  2.756941  6.162662  8.281555
 Al  2.770648  8.196637 13.525621
 Ni  8.211937  6.243685 13.546790
 Ni 10.039512  4.456160 13.562726
 Ni 10.038844  6.277027 11.775581
 Ni 11.860371  6.275908 13.561922
 Ni 13.663317  4.477124 13.538733
 Ni 13.644122  6.288118 11.754944
 Ni  8.171469  9.970570 13.670782
 Ni 10.036555  8.085030 13.570979
 Ni 10.044201  9.877935 11.778506
 Ni 11.866266  9.877786 13.571410
 Ni 13.688694  8.077577 13.563310
 Ni 13.676364  9.883877 11.763237
 Ni  8.245198 13.461108 13.552098
 Ni 10.075980 11.692118 13.544889
 Ni 10.046240 13.504089 11.744252
 Ni 11.866763 13.504542 13.529822
 Ni 13.659238 11.685895 13.554951
 Ni 13.672140 13.491439 11.730688
 Ni  8.223726  2.654175 13.575516
 Ni 10.070741  0.846710 13.539068
 Ni 10.031914  2.656070 11.750967
 Ni 11.852858  2.661910 13.531568
 Ni 13.679943  0.853450 13.521835
 Ni 13.665873  2.659082 11.739777
 Ni  8.177579  6.246428  2.743686
 Ni 10.028724  4.463580  2.703791
 Ni 10.039234  6.247976  0.897823
 Ni 11.833822  6.283374  2.680705
 Ni 13.650979  4.490997  2.691390
 Ni 13.679666  6.275920  0.883128
 Ni  8.171370  9.986409  2.596591
 Ni 10.007264  8.082096  2.701940
 Ni 10.055170  9.887043  0.905478
 Ni 11.857563  9.863564  2.707214
 Ni 13.678269  8.075478  2.697863
 Ni 13.686989  9.881722  0.912954
 Ni  8.239621 13.524916  2.738387
 Ni 10.083229 11.701116  2.728589
 Ni 10.109529 13.531640  0.902171
 Ni 11.889828 13.487001  2.714203
 Ni 13.703929 11.675885  2.713428
 Ni 13.651164 13.506130  0.863843
 Ni  8.241573  2.568983  2.718266
 Ni 10.087619  0.834875  2.710156
 Ni 10.053784  2.650842  0.902647
 Ni 11.852282  2.688950  2.703584
 Ni 13.606212  0.885523  2.725664
 Ni 13.624430  2.668663  0.851645
 Ni  8.209023  6.262993  6.292688
 Ni 10.038146  4.473327  6.324549
 Ni 10.014415  6.275280  4.505595
 Ni 11.845880  6.282353  6.326739
 Ni 13.619871  4.440999  6.327709
 Ni 13.615502  6.269322  4.474115
 Ni  8.213382  9.897769  6.334163
 Ni 10.013953  8.079813  6.319931
 Ni 10.029723  9.889888  4.499670
 Ni 11.825502  9.871865  6.322482
 Ni 13.635655  8.102517  6.328435
 Ni 13.665056  9.841063  4.519232
 Ni  8.254501 13.501647  6.343658
 Ni 10.057553 11.681939  6.350271
 Ni 10.078638 13.488167  4.528967
 Ni 11.855284 13.488454  6.345694
 Ni 13.631076 11.661291  6.383552
 Ni 13.663608 13.521631  4.542893
 Ni  8.264986  2.644329  6.328771
 Ni 10.084186  0.838106  6.366567
 Ni 10.067588  2.654947  4.515192
 Ni 11.831024  2.660661  6.335645
 Ni 13.630048  0.867009  6.306864
 Ni 13.632419  2.674051  4.532371
 Ni  8.233989  6.280881  9.981426
 Ni 10.030676  4.467960  9.963349
 Ni 10.029405  6.286437  8.142687
 Ni 11.822466  6.272883  9.971668
 Ni 13.642634  4.476559  9.953329
 Ni 13.611636  6.279160  8.181098
 Ni  8.223464  9.866862  9.973366
 Ni 10.034475  8.083529  9.969909
 Ni 10.024975  9.871210  8.146491
 Ni 11.856086  9.874328  9.955794
 Ni 13.649993  8.067363  9.953205
 Ni 13.647914  9.857398  8.126242
 Ni  8.233910 13.512397  9.938131
 Ni 10.054270 11.679620  9.939616
 Ni 10.051930 13.494069  8.149981
 Ni 11.844049 13.496942  9.951441
 Ni 13.671290 11.699572  9.922966
 Ni 13.640010 13.469178  8.135939
 Ni  8.222769  2.655889  9.950866
 Ni 10.041304  0.847707  9.945864
 Ni 10.045592  2.655829  8.150017
 Ni 11.842220  2.666114  9.958443
 Ni 13.636411  0.839499  9.962980
 Ni 13.600761  2.698798  8.142831
 Ni  1.012862  6.282750 13.525985
 Ni  2.789181  4.433414 13.541218
 Ni  0.950689  4.485931 11.727831
 Ni  4.554875  6.256435 13.560656
 Ni  6.377757  4.433824 13.570608
 Ni  4.596385  8.038574 11.762392
 Ni  4.637507  4.415537 11.756307
 Ni  0.986677  8.054785 11.747506
 Ni  0.960426  9.902052 13.552811
 Ni  4.612067  9.894801 13.508896
 Ni  6.379319  8.044529 13.563021
 Ni  6.430308  9.912637 11.795894
 Ni  2.763104  9.903931 11.723786
 Ni  0.942864 13.474052 13.554176
 Ni  4.544893 11.739132 11.747132
 Ni  2.755382 13.524460 11.702503
 Ni  4.559754 13.593737 13.540780
 Ni  4.610911 11.731489  0.861657
 Ni  6.431234 13.533921 11.760672
 Ni  0.969178  2.672503 13.529616
 Ni  4.567146  0.902304 11.746803
 Ni  0.989277  0.847392 11.689934
 Ni  4.573674  2.612935 13.550723
 Ni  6.409879  0.832683 13.538743
 Ni  6.419842  2.637860 11.795963
 Ni  2.783768  0.891928  9.853726
 Ni  0.959400  6.243294  2.692339
 Ni  2.814161  4.438726  2.721394
 Ni  0.949333  4.443935  0.865050
 Ni  6.429269  4.374365  2.720065
 Ni  6.412437  6.244633  0.859913
 Ni  4.599805  4.423562  0.891238
 Ni  1.050420  9.907127  2.742508
 Ni  2.812601  7.983041  2.670082
 Ni  2.806996  9.885097  0.899580
 Ni  1.015660  8.079305  0.897850
 Ni  4.582325  9.837354  2.710767
 Ni  6.442092  8.086958  2.718869
 Ni  4.523535  8.002021  0.880369
 Ni  0.928751  0.888573  0.869113
 Ni  0.980959 11.689171  0.919296
 Ni  4.548782 13.583985  2.732459
 Ni  6.403849 13.549203  0.914467
 Ni  2.752472 13.537541  0.907862
 Ni  2.744416  0.925929  2.764440
 Ni  2.780430  2.659996  0.865578
 Ni  4.607923  2.656789  2.709786
 Ni  6.401170  2.571746  0.913339
 Ni  0.963666  4.463828  4.508375
 Ni  6.450454  4.387962  6.346349
 Ni  4.650328  4.470779  4.523688
 Ni  1.008225  9.808460  6.347158
 Ni  0.964689  8.014215  4.510754
 Ni  2.859291  7.911743  6.420880
 Ni  6.410349  8.125009  6.339638
 Ni  6.441218  9.920840  4.469412
 Ni  4.652799  8.048766  4.501191
 Ni  0.956256 13.517233  6.346419
 Ni  2.776693 11.617094  6.285927
 Ni  2.693478 13.476836  4.474349
 Ni  4.590862 13.483470  6.295195
 Ni  6.424564 11.729838  6.337705
 Ni  6.404747 13.504502  4.558525
 Ni  4.509502 11.687578  4.538415
 Ni  0.949162  2.706976  6.342696
 Ni  2.754714  0.829103  6.390143
 Ni  0.974571  0.908635  4.579604
 Ni  4.646698  2.665772  6.339429
 Ni  6.402147  0.837437  6.327236
 Ni  6.415506  2.627682  4.539871
 Ni  4.557578  0.834185  4.577508
 Ni  0.941337  6.271654  9.959253
 Ni  2.819520  4.357193  9.920273
 Ni  2.805054  4.636280  6.318006
 Ni  0.936671  4.475727  8.144191
 Ni  4.653942  6.212213  9.935623
 Ni  6.445269  4.489080  9.943347
 Ni  6.465366  6.242999  8.119998
 Ni  4.665688  4.469661  8.106202
 Ni  0.977249 11.711107 11.731089
 Ni  2.832178  8.074481  9.921248
 Ni  2.886380  9.858377  8.098768
 Ni  0.991255  8.047752  8.143127
 Ni  6.391330  6.250703 11.772993
 Ni  6.393331  9.892265  8.196061
 Ni  6.404149  8.059048  9.990263
 Ni  0.991473 13.504150  9.894215
 Ni  2.776289 11.727805  9.920359
 Ni  0.985699 11.645760  8.095628
 Ni  6.428612 11.706357  9.968646
 Ni  6.413020 13.503393  8.111145
 Ni  4.634916 11.744239  8.150970
 Ni  0.941924  2.663937  9.903095
 Ni  4.625514  0.827974  8.106818
 Ni  6.440532  0.841225  9.932883
 Ni  6.464037  2.638359  8.106753
%endblock positions_abs_intermediate 
     kpoint_mp_grid 1 1 1 
     fix_com : false