#######################################################
#CASTEP cell file: /home/u2093113/Documents/kART/barriers/CASTEP/castep.cell
#Created using the Atomic Simulation Environment (ASE)#
#######################################################

%BLOCK LATTICE_CART
14.464828  0.000000  0.000000
 0.000000 14.464828  0.000000
 0.000000  0.000000 14.464828
%ENDBLOCK LATTICE_CART

%BLOCK POSITIONS_ABS
Ni  8.211463  4.517992  4.517079
Ni 10.034227  2.711077  4.524419
Ni 10.031226  4.526522  2.726656
Al  8.246705  2.707166  2.738163
Ni 11.823671  4.530681  4.526438
Ni 13.626239  2.724642  4.521081
Ni 13.627252  4.528635  2.712439
Al 11.830836  2.721078  2.715219
Ni  8.187323  8.217435  4.542138
Ni 10.015203  6.347884  4.523511
Ni 10.040819  8.138230  2.717483
Al  8.248470  6.348087  2.738203
Ni 11.842161  8.133233  4.519055
Ni 13.629475  6.330332  4.520883
Ni 13.634534  8.131245  2.707228
Al 11.827918  6.329592  2.716440
Ni  8.225448 11.712665  4.499874
Ni 10.076014  9.954756  4.503009
Ni 10.067865 11.763445  2.697306
Al  8.320367  9.965271  2.664603
Ni 11.861624 11.757495  4.510081
Ni 13.634965  9.940131  4.515555
Ni 13.642915 11.752354  2.702520
Al 11.850454  9.941563  2.699665
Ni  8.221869  0.892268  4.513353
Ni 10.059049 13.552118  4.504044
Ni 10.038676  0.903378  2.712853
Al  8.263764 13.547608  2.726848
Ni 11.841005  0.909854  4.516680
Ni 13.640274 13.567823  4.515326
Ni 13.637104  0.917994  2.708609
Al 11.852934 13.570574  2.702021
Ni  6.499284  4.509440  9.910721
Ni 10.008286  2.704327  8.114042
Ni 10.005589  4.532991  6.319912
Al  8.232047  2.691119  6.302883
Ni 11.808299  4.529495  8.129709
Ni 13.620995  2.726139  8.137738
Ni 13.622855  4.529132  6.330755
Al 11.823023  2.720656  6.328191
Ni  8.177801  8.208107  8.097129
Ni  9.993671  6.345149  8.119025
Ni 10.040124  8.143085  6.325140
Al  8.213551  6.374669  6.294814
Ni 11.830953  8.131251  8.139390
Ni 13.623273  6.329313  8.139146
Ni 13.630735  8.133945  6.330801
Al 11.820126  6.332207  6.329263
Ni  8.211990 11.752657  8.158275
Ni 10.060736  9.959304  8.152724
Ni 10.079238 11.763012  6.326082
Al  8.354977  9.983049  6.330682
Ni 11.858862 11.756715  8.144406
Ni 13.633338  9.938764  8.142976
Ni 13.638546 11.751742  6.328586
Al 11.847323  9.943633  6.330379
Ni  8.221359  0.837283  8.129576
Ni 10.045559 13.547041  8.138491
Ni 10.041587  0.893533  6.320896
Al  8.295671 13.529862  6.270659
Ni 11.835228  0.909723  8.132837
Ni 13.640038 13.568018  8.141265
Ni 13.631228  0.915522  6.328220
Al 11.852014 13.566177  6.326661
Ni  8.214948  4.526702 11.749426
Ni 10.023242  2.723541 11.754866
Ni  9.997993  4.527950  9.926865
Al  8.272177  2.687718  9.922419
Ni 11.812345  4.529106 11.749173
Ni 13.625285  2.730748 11.750676
Ni 13.618685  4.529893  9.942970
Al 11.812568  2.728901  9.937615
Ni  8.208850  8.139458 11.772639
Ni 10.006907  6.329126 11.754946
Ni 10.023949  8.133950  9.941262
Al  8.240416  6.352771  9.924287
Ni 11.830306  8.121657 11.754639
Ni 13.624586  6.325807 11.750159
Ni 13.628248  8.127738  9.948432
Al 11.807057  6.325668  9.938925
Ni  8.245065 11.742735 11.779611
Ni 10.055724  9.935450 11.776339
Ni 10.076002 11.749593  9.963398
Al  8.311117  9.955191  9.988396
Ni 11.857594 11.749449 11.766393
Ni 13.638413  9.934614 11.756085
Ni 13.639827 11.751654  9.952814
Al 11.843936  9.934899  9.956548
Ni  8.252162  0.896099 11.764491
Ni 10.078315 13.562716 11.780275
Ni 10.056558  0.906633  9.943791
Al  8.338777 13.543437 10.019357
Ni 11.839934  0.924364 11.760366
Ni 13.638956 13.570434 11.756028
Ni 13.626458  0.920106  9.946471
Al 11.848357 13.567857  9.951706
Ni  8.213973  4.526510  0.949051
Ni 10.023046  2.715567  0.922131
Ni 10.009568  4.529113 13.572463
Al  8.264668  2.711234 13.582177
Ni 11.824123  4.525882  0.908096
Ni 13.632057  2.727453  0.901635
Ni 13.625654  4.528177 13.557933
Al 11.820431  2.729471 13.565599
Ni  8.224241  8.152472  0.910810
Ni 10.023401  6.330743  0.917551
Ni 10.032732  8.126703 13.566754
Al  8.233426  6.334933 13.590779
Ni 11.837826  8.125846  0.902279
Ni 13.630467  6.326737  0.902127
Ni 13.634187  8.125279 13.558611
Al 11.820975  6.321974 13.561870
Ni  8.231462 11.763366  0.893763
Ni 10.062874  9.945961  0.888723
Ni 10.059743 11.752934 13.569400
Al  8.255322  9.945887 13.571111
Ni 11.856441 11.758480  0.896682
Ni 13.639318  9.937669  0.897793
Ni 13.647253 11.752553 13.560299
Al 11.849983  9.934172 13.562415
Ni  8.215442  0.886037  0.918416
Ni 10.045402 13.567236  0.903371
Ni 10.041453  0.913365 13.575923
Al  8.271084 13.555704 13.555778
Ni 11.841483  0.918136  0.906053
Ni 13.646919 13.570380  0.898653
Ni 13.637599  0.923471 13.560033
Al 11.853462 13.572996 13.569794
Ni  1.005705  4.477521  4.444452
Ni  2.771185  2.683277  4.468006
Al  4.756293  0.882503  0.866505
Ni  0.927605  2.661214  2.649469
Ni  4.504584  4.574161  4.526519
Ni  6.398894  2.691867  4.525162
Ni  4.579033  6.328218  2.696774
Ni  4.626880  2.675346  2.712219
Al  0.817575 13.545916 13.481925
Ni  0.919582  6.367789  2.600694
Ni  0.916719  8.204790  4.491028
Al  2.793734  0.990465 13.449127
Ni  4.549992  8.155969  4.429436
Ni  6.424792  6.390891  4.487009
Ni  6.438845  8.197061  2.723738
Ni  2.728636  8.197278  2.666215
Ni  0.948964 11.760435  4.490552
Ni  4.588882 10.004151  2.713105
Ni  2.751920 11.785121  2.644571
Al  4.655481 11.773010  0.928332
Ni  4.555544 11.789609  4.495385
Ni  4.608822  9.899250  6.282490
Ni  6.436407 11.750963  2.728607
Al  2.792220 11.695979 13.437854
Ni  0.950143  0.858813  4.464821
Ni  4.574848 13.586828  2.681688
Ni  0.966256 13.551109  2.614137
Ni  4.550056  0.853516  4.490296
Ni  6.410345 13.530434  4.524613
Ni  6.430959  0.885279  2.731816
Ni  2.798608 13.589938  0.773907
Ni  0.939418  4.484406  8.127934
Ni  2.800465  2.688562  8.143389
Al  4.599547  8.238010  0.991269
Ni  0.915760  2.643931  6.305872
Al  1.065658  8.206670  0.769857
Ni  6.477856  2.656238  8.099800
Ni  6.405558  4.539459  6.270941
Ni  4.620072  2.692586  6.299726
Ni  1.028372  8.131440  8.162738
Ni  2.843685  6.240725  8.028023
Ni  2.761539  8.115267  6.286431
Ni  0.945331  6.320322  6.297144
Ni  4.591600  8.093502  8.147264
Ni  8.197654  4.520079  8.094478
Al  2.871211  0.967293 10.071632
Ni  6.454826  6.383599  8.082578
Ni  0.972277 13.581555  6.332311
Al  0.968092  9.898765  9.977417
Ni  1.008573 10.015424  6.377873
Ni  4.571550 11.781839  8.150419
Ni  6.419461 11.753092  6.339839
Ni  2.777088 11.790209  6.330587
Al  4.708232  8.150832 11.758984
Al  2.793880  7.899657  9.946738
Ni  2.827865 13.627545  8.170561
Ni  2.764869  0.907479  6.295939
Ni  4.602980  0.908093  8.149403
Ni  6.414499  0.843684  6.324107
Al  4.789878  4.444161 11.710129
Al  4.738719  6.288248 13.669517
Al  2.759563  4.518697  9.846861
Al  0.915279  4.544441 11.758531
Ni  0.938954  2.720360  9.961630
Ni  6.510570  2.682240 11.742923
Ni  4.671619  2.731813  9.926208
Al  4.600446 13.576047  6.311659
Al  6.369437 13.529364  8.225070
Al  2.699854 13.487253  4.483273
Ni  0.960371  8.064355 11.761336
Al  0.990184  0.917061  8.177974
Ni  0.931369  6.289878  9.948869
Ni  2.873788  6.179559 11.814216
Ni  6.452807  6.335637 11.762855
Ni  6.442352  8.160329  9.925703
Ni  4.668416  6.259509  9.939937
Al  6.280095  9.941872  8.094992
Ni  0.945044 11.727450 11.719760
Ni  2.796849  9.855824 11.691741
Ni  2.778447 11.737699  9.962594
Al  1.026313 11.915064  8.188718
Ni  4.607717 11.722818 11.746084
Ni  6.448241  9.954766 11.736054
Ni  6.426232 11.722885  9.948554
Ni  4.579746  9.898132  9.940403
Al  2.908577  9.930972  8.042481
Ni  0.949258  0.936517 11.730001
Ni  2.775960 13.567478 11.786767
Al  4.770090  6.507374  6.262448
Ni  0.994621 13.610623  9.979899
Ni  4.643200  0.941848 11.774291
Ni  6.451708 13.543798 11.727859
Ni  6.444197  0.881962  9.953552
Ni  4.607888 13.567803  9.994645
Ni  0.947156  4.484268  0.861762
Ni  2.816994  2.622994  0.871393
Ni  2.808626  2.838424 11.742233
Ni  0.918815  2.708789 13.500183
Ni  4.630666  4.493707  0.921899
Ni  6.471129  2.704053  0.933688
Ni  6.470063  4.507168 13.592324
Ni  4.682368  2.719866 13.563248
Al  4.775074  4.456557  8.116880
Ni  0.956182  9.988807  2.636459
Ni  2.798529  6.332843  0.902061
Ni  2.880927  8.093095 13.523555
Ni  0.948537  6.311935 13.555087
Al  2.683675  4.398182  6.308006
Ni  6.393421  4.512343  2.759023
Ni  6.415640  8.150832 13.602615
Ni  6.438473  6.352258  0.985401
Al  2.710802  0.936597  2.640945
Ni  0.984280 11.739614  0.789262
Ni  2.815103  9.994994  0.849704
Al  6.294328  9.953640  4.550648
Ni  0.961181  9.931078 13.478454
Al  2.764129  9.982128  4.510487
Ni  6.437167  9.977658  0.924723
Ni  6.431147 11.760938 13.551374
Ni  4.642965  9.956457 13.554949
Al  2.766083  4.417158  2.602925
Al  2.779316  4.427572 13.694971
Ni  0.962003  0.886985  0.797722
Al  2.669908  6.438638  4.421160
Ni  4.635824 13.550421 13.532912
Ni  6.452416 13.536760  0.913281
Ni  6.462101  0.885021 13.545695
%ENDBLOCK POSITIONS_ABS

FIX_ALL_CELL: TRUE
KPOINT_MP_GRID: 1 1 1
