#######################################################
#CASTEP cell file: /home/u2093113/Documents/kART/barriers/CASTEP/castep.cell
#Created using the Atomic Simulation Environment (ASE)#
#######################################################

%BLOCK LATTICE_CART
14.464828  0.000000  0.000000
 0.000000 14.464828  0.000000
 0.000000  0.000000 14.464828
%ENDBLOCK LATTICE_CART

%BLOCK POSITIONS_ABS
Ni  8.213215  6.268333  9.934483
Ni 10.026971  4.461446  9.932731
Ni 10.024389  6.282422  8.135668
Al  8.240141  4.466519  8.138327
Ni 11.819249  6.283575  9.935479
Ni 13.623748  4.476395  9.932661
Ni 13.628478  6.281548  8.127073
Al 11.827661  4.472724  8.128684
Ni  8.207741  9.976235  9.905532
Ni 10.006020  8.103989  9.929288
Ni 10.046710  9.894883  8.116362
Al  8.232027  8.103144  8.130113
Ni 11.836451  9.892756  9.929124
Ni 13.628095  8.086487  9.932833
Ni 13.634224  9.889663  8.121254
Al 11.831095  8.084145  8.131032
Ni  8.204800 13.462635  9.904772
Ni 10.061498 11.713463  9.912132
Ni 10.054440 13.517976  8.105229
Al  8.303843 11.714448  8.054534
Ni 11.851918 13.514244  9.921309
Ni 13.634091 11.698773  9.927108
Ni 13.642313 13.510253  8.116593
Al 11.848293 11.702575  8.112461
Ni  8.208421  2.647090  9.919171
Ni 10.041435  0.839620  9.913344
Ni 10.029142  2.656555  8.121840
Al  8.249536  0.837509  8.128369
Ni 11.833067  2.659872  9.927472
Ni 13.637834  0.857166  9.927024
Ni 13.635536  2.670349  8.122820
Al 11.845274  0.859442  8.115235
Ni  6.493993  6.267997  0.879390
Ni 10.006903  4.454148 13.527672
Ni 10.010075  6.279207 11.731948
Al  8.226521  4.438493 11.719956
Ni 11.813373  6.278909 13.536684
Ni 13.622731  4.476714 13.544203
Ni 13.620822  6.282085 11.738671
Al 11.819920  4.468910 11.736561
Ni  8.199853  9.957899 13.558813
Ni 10.006862  8.098574 13.529328
Ni 10.034594  9.903492 11.735455
Al  8.230548  8.118215 11.718035
Ni 11.833989  9.892489 13.544089
Ni 13.622852  8.085042 13.544985
Ni 13.629843  9.892370 11.738701
Al 11.818333  8.088386 11.734958
Ni  8.194985 13.505789 13.577191
Ni 10.052458 11.718229 13.561642
Ni 10.060746 13.518749 11.736372
Al  8.333324 11.734697 11.745538
Ni 11.853517 13.515010 13.550839
Ni 13.635250 11.698547 13.549459
Ni 13.637805 13.509515 11.737422
Al 11.842642 11.704333 11.738358
Ni  8.209879  2.594262 13.551000
Ni 10.032918  0.836785 13.550056
Ni 10.029974  2.644557 11.731932
Al  8.276016  0.822322 11.684103
Ni 11.831951  2.659922 13.540860
Ni 13.640217  0.857814 13.548359
Ni 13.629383  2.666729 11.737068
Al 11.842223  0.854301 11.735600
Ni  8.235634  6.278453  2.700497
Ni 10.037197  4.474674  2.700408
Ni 10.012967  6.276408  0.871258
Al  8.270322  4.448131  0.879924
Ni 11.825139  6.278474  2.692345
Ni 13.630593  4.481639  2.696146
Ni 13.623185  6.281926  0.885528
Al 11.820712  4.477039  0.879993
Ni  8.240296  9.893470  2.707912
Ni 10.029278  8.080367  2.694649
Ni 10.049705  9.892386  0.890386
Al  8.261375  8.100998  0.865501
Ni 11.842630  9.881161  2.699883
Ni 13.627978  8.080911  2.695799
Ni 13.629902  9.886266  0.890845
Al 11.819088  8.078803  0.880956
Ni  8.243488 13.495370  2.725401
Ni 10.071350 11.697952  2.718926
Ni 10.071902 13.508360  0.907982
Al  8.310057 11.707184  0.945668
Ni 11.861501 13.512194  2.709403
Ni 13.641094 11.695013  2.700973
Ni 13.642756 13.511039  0.895152
Al 11.850348 11.698880  0.897016
Ni  8.246127  2.665326  2.713415
Ni 10.075438  0.856918  2.725141
Ni 10.054223  2.661728  0.891087
Al  8.330411  0.838883  0.973168
Ni 11.844816  2.675447  2.705101
Ni 13.643383  0.861551  2.701036
Ni 13.630057  2.671696  0.889415
Al 11.847124  0.858742  0.894372
Ni  8.222789  6.286467  6.338641
Ni 10.025409  4.469003  6.332135
Ni 10.035118  6.276416  4.516836
Al  8.268708  4.474255  4.523487
Ni 11.830233  6.276632  6.324904
Ni 13.634376  4.479067  6.317267
Ni 13.627918  6.281038  4.506474
Al 11.830719  4.477498  4.514055
Ni  8.235495  9.903722  6.304543
Ni 10.039486  8.084771  6.330355
Ni 10.052141  9.886605  4.509172
Al  8.281566  8.084884  4.529799
Ni 11.844953  9.885790  6.314353
Ni 13.631094  8.082179  6.316216
Ni 13.636707  9.883484  4.506265
Al 11.829818  8.076749  4.508338
Ni  8.225041 13.517703  6.290487
Ni 10.065725 11.705671  6.295361
Ni 10.063666 13.514248  4.512386
Al  8.271149 11.704211  4.503580
Ni 11.855262 13.518239  6.310391
Ni 13.640838 11.697422  6.311917
Ni 13.649138 13.511947  4.508012
Al 11.857003 11.696979  4.509067
Ni  8.209379  2.646460  6.321292
Ni 10.039085  0.858751  6.312041
Ni 10.042266  2.669592  4.520878
Al  8.267280  0.849932  4.495868
Ni 11.840602  2.670206  6.320133
Ni 13.647571  0.861054  6.313497
Ni 13.641530  2.675572  4.508496
Al 11.854724  0.865546  4.516413
Ni  0.981446  6.214402  9.869448
Ni  2.762281  4.428044  9.879622
Al  4.751579  2.651344  6.259069
Ni  0.913099  4.408220  8.052629
Ni  4.491668  6.325943  9.918468
Ni  6.392573  4.446482  9.929409
Ni  4.552705  9.888747  9.879577
Ni  4.620601  4.455727  8.101946
Al  0.815689  0.833101  4.429260
Ni  0.911063  8.124717  8.016230
Ni  0.913157  9.970380  9.903243
Al  2.789668  2.756988  4.393139
Ni  4.577402 11.706601 11.700911
Ni  6.445003  8.126216  9.920769
Ni  6.421066  9.941121  8.094523
Ni  2.777971  9.916725  8.064395
Ni  0.964616 13.512732  9.894841
Ni  4.590148 11.699959  8.074274
Ni  2.762828 13.528073  8.039982
Al  4.651331 13.511609  6.316238
Ni  4.546204 13.546466  9.884459
Ni  6.441310  9.973125 11.726588
Ni  6.419325 13.503589  8.109627
Al  2.783278 13.439246  4.372653
Ni  0.950192  2.609934  9.871480
Ni  4.568408  0.884415  8.071597
Ni  0.975488  0.842004  8.016851
Ni  4.546276  2.613630  9.891186
Ni  6.396670  0.820557  9.924574
Ni  6.420345  2.649023  8.128404
Ni  2.796759  0.875523  6.172720
Ni  0.927959  6.230566 13.549888
Ni  2.796729  4.442971 13.574681
Al  4.715881  8.085038  8.133394
Ni  0.904514  4.382147 11.726529
Al  1.053575  9.958169  6.198020
Ni  6.469738  4.412057 13.531306
Ni  6.405807  6.272073 11.695809
Ni  4.613426  4.451795 11.710202
Ni  1.020864  9.891565 13.586118
Ni  2.828973  7.989228 13.453077
Ni  2.748302  9.876752 11.717130
Ni  0.927436  8.073112 11.728614
Ni  4.582392  9.839527 13.551591
Ni  8.199890  6.271768 13.513480
Al  2.870357  2.745941  1.044539
Ni  6.447003  8.112300 13.511788
Ni  0.979290  0.877298 11.746376
Al  0.959886 11.655153  0.929366
Ni  1.015214 11.779669 11.794450
Ni  4.561567 13.540634 13.587217
Ni  6.406649 13.517001 11.757612
Ni  2.772531 13.560296 11.745192
Al  4.682102  9.750617  2.827675
Al  2.797435  9.656872  0.905983
Ni  2.829855  0.929615 13.600138
Ni  2.766523  2.665555 11.714173
Ni  4.597562  2.681203 13.581363
Ni  6.402944  2.601697 11.739242
Al  4.774465  6.329474  2.741094
Al  4.601600  9.933241  6.180943
Al  2.748452  6.276196  0.809621
Al  0.898029  6.304304  2.720436
Ni  0.934375  4.480139  0.927175
Ni  6.491343  4.474184  2.706681
Ni  4.662996  4.526485  0.924584
Al  4.594431  0.870793 11.728640
Al  6.353897  0.829606 13.655206
Al  2.704283  0.786582  9.882588
Ni  0.923929  9.821766  2.696025
Al  0.991043  2.673872 13.605211
Ni  0.912713  8.045626  0.890881
Ni  2.811645  7.941696  2.742683
Ni  6.498939  8.086958  2.712691
Ni  6.425018  9.892685  0.897714
Ni  4.661112  8.013986  0.890245
Al  6.261892 11.720091 13.559632
Ni  0.938139 13.479825  2.668889
Ni  2.787915 11.587452  2.641045
Ni  2.778240 13.485508  0.926786
Al  1.032012 13.678246 13.611306
Ni  4.601053 13.479538  2.692613
Ni  6.436998 11.680136  2.679688
Ni  6.413722 13.479299  0.917927
Ni  4.572409 11.602933  0.935019
Al  2.908857 11.689049 13.476703
Ni  0.946764  2.702713  2.691363
Ni  2.769548  0.861709  2.742484
Al  4.703420  8.168594 11.678338
Ni  0.996206  0.906574  0.939797
Ni  4.637915  2.708270  2.739494
Ni  6.449651  0.840409  2.678555
Ni  6.430598  2.656274  0.921439
Ni  4.599005  0.869758  0.959195
Ni  0.936682  6.248534  6.263381
Ni  2.812772  4.405446  6.256045
Ni  2.813762  4.636114  2.720519
Ni  0.924492  4.487588  4.450377
Ni  4.630223  6.315876  6.307094
Ni  6.466225  4.474137  6.325429
Ni  6.453849  6.308309  4.535655
Ni  4.676603  4.510720  4.511032
Al  4.764603  6.194407 13.552127
Ni  0.975139 11.726900  8.046532
Ni  2.818206  8.094809  6.346581
Ni  2.814266  9.825435  4.453987
Ni  0.925275  8.073079  4.515567
Al  2.663154  6.128635 11.730790
Ni  6.413463  6.263950  8.147353
Ni  6.457096  9.881861  4.512319
Ni  6.417297  8.112936  6.310359
Al  2.711487  2.705085  8.031267
Ni  0.987222 13.485080  6.198690
Ni  2.816487 11.729128  6.241311
Al  6.272008 11.739465  9.920404
Ni  0.944380 11.680771  4.423619
Al  2.777149 11.726318  9.911893
Ni  6.433164 11.718406  6.297641
Ni  6.427903 13.508323  4.481728
Ni  4.634860 11.700925  4.457040
Al  2.712474  6.141725  8.013503
Al  2.818533  6.286215  4.650725
Ni  0.964170  2.647052  6.197791
Al  2.604209  8.185921  9.872929
Ni  4.633131  0.838376  4.475483
Ni  6.445086  0.830620  6.308061
Ni  6.457070  2.653767  4.485654
%ENDBLOCK POSITIONS_ABS

FIX_ALL_CELL: TRUE
KPOINT_MP_GRID: 1 1 1
