#######################################################
#CASTEP cell file: /home/u2093113/Documents/kART/barriers/CASTEP/castep.cell
#Created using the Atomic Simulation Environment (ASE)#
#######################################################

%BLOCK LATTICE_CART
14.464828  0.000000  0.000000
 0.000000 14.464828  0.000000
 0.000000  0.000000 14.464828
%ENDBLOCK LATTICE_CART

%BLOCK POSITIONS_ABS
Ni  8.217232  6.242721 13.559568
Ni 10.041320  4.452744 13.570283
Ni 10.033560  6.269869 11.769732
Al  8.255121  4.446667 11.774488
Ni 11.824153  6.272280 13.577108
Ni 13.629946  4.474726 13.568524
Ni 13.626249  6.278905 11.757637
Al 11.835796  4.472648 11.756355
Ni  8.165949  9.950053 13.612731
Ni 10.024618  8.084842 13.569787
Ni 10.031957  9.880704 11.773970
Al  8.243368  8.089672 11.794280
Ni 11.840532  9.879932 13.569769
Ni 13.624934  8.076337 13.571357
Ni 13.633346  9.876003 11.755950
Al 11.826336  8.074819 11.762704
Ni  8.234399 13.490128 13.533031
Ni 10.065790 11.701078 13.553574
Ni 10.074359 13.513203 11.741323
Al  8.321835 11.711208 11.714803
Ni 11.863906 13.504083 13.555441
Ni 13.636385 11.685929 13.563454
Ni 13.644559 13.497554 11.749543
Al 11.848094 11.684668 11.750141
Ni  8.230727  2.639680 13.557558
Ni 10.071730  0.843746 13.545827
Ni 10.050805  2.656241 11.752202
Al  8.277484  0.845406 11.760006
Ni 11.849733  2.661399 13.562269
Ni 13.643258  0.851469 13.561097
Ni 13.640866  2.669514 11.752793
Al 11.860646  0.855541 11.745108
Ni  8.129437  6.249318  2.760088
Ni 10.006448  4.447206  2.713102
Ni 10.009842  6.246286  0.927535
Al  8.239289  4.425617  0.900121
Ni 11.813759  6.272645  2.723193
Ni 13.628921  4.474745  2.724739
Ni 13.622359  6.277235  0.916573
Al 11.829465  4.464676  0.918163
Ni  8.155555  9.960752  2.648406
Ni  9.990646  8.084070  2.714619
Ni 10.034081  9.893041  0.908550
Al  8.293461  8.026160  0.888580
Ni 11.827240  9.878797  2.721925
Ni 13.622938  8.077716  2.722859
Ni 13.629284  9.878797  0.914727
Al 11.813307  8.072783  0.918732
Ni  8.218166 13.524407  2.747501
Ni 10.051261 11.708421  2.728798
Ni 10.088507 13.523226  0.906756
Al  8.351051 11.779920  0.906688
Ni 11.862142 13.502578  2.728069
Ni 13.635156 11.684826  2.725309
Ni 13.640185 13.499518  0.911017
Al 11.849419 11.692294  0.912622
Ni  8.229923  2.571700  2.716690
Ni 10.059286  0.833973  2.726580
Ni 10.052568  2.643452  0.907027
Al  8.308082  0.826230  0.852097
Ni 11.842708  2.660150  2.722226
Ni 13.643940  0.850732  2.726165
Ni 13.636691  2.664746  0.912588
Al 11.860671  0.852986  0.909832
Ni  8.152709  6.274715  6.260675
Ni 10.018478  4.478261  6.331803
Ni  9.994392  6.273184  4.511267
Al  8.249090  4.431065  4.508280
Ni 11.811485  6.282889  6.327896
Ni 13.631062  4.482982  6.334085
Ni 13.624795  6.281144  4.528120
Al 11.818853  4.477439  4.525943
Ni  8.207826  9.901673  6.351877
Ni  9.988255  8.076108  6.326333
Ni 10.006416  9.878882  4.513508
Al  8.206581  8.096209  4.499228
Ni 11.822985  9.865753  6.331766
Ni 13.626347  8.076616  6.331719
Ni 13.629469  9.875306  4.530001
Al 11.804592  8.075701  4.522157
Ni  8.252325 13.491822  6.368184
Ni 10.056733 11.682222  6.357087
Ni 10.081736 13.497922  4.547372
Al  8.312309 11.707889  4.567678
Ni 11.862462 13.492489  6.348940
Ni 13.638091 11.678011  6.337440
Ni 13.641945 13.496240  4.535887
Al 11.840518 11.678156  4.535616
Ni  8.263856  2.636576  6.352774
Ni 10.090056  0.843357  6.365917
Ni 10.060103  2.657615  4.532315
Al  8.348178  0.830718  4.611690
Ni 11.845202  2.676205  6.343058
Ni 13.642852  0.852403  6.339818
Ni 13.634170  2.668677  4.532347
Al 11.855714  0.851412  4.537806
Ni  8.216176  6.274769  9.990767
Ni 10.027871  4.469316  9.957488
Ni  9.987061  6.283570  8.131514
Al  8.268551  4.464290  8.151318
Ni 11.819552  6.278757  9.944813
Ni 13.633910  4.481265  9.943919
Ni 13.627769  6.281861  8.137336
Al 11.819446  4.487275  8.140190
Ni  8.218783  9.898213  9.964284
Ni 10.016358  8.077670  9.963752
Ni 10.026827  9.872749  8.148011
Al  8.229603  8.085124  8.164138
Ni 11.833231  9.869178  9.951270
Ni 13.629059  8.075283  9.946901
Ni 13.631712  9.870424  8.139961
Al 11.811430  8.069851  8.137756
Ni  8.239170 13.513998  9.938557
Ni 10.063091 11.689218  9.939183
Ni 10.067545 13.496238  8.153074
Al  8.255150 11.694856  8.158420
Ni 11.861062 13.501765  9.943789
Ni 13.638900 11.680712  9.946411
Ni 13.649625 13.495730  8.142962
Al 11.849932 11.675467  8.144842
Ni  8.226695  2.638574  9.952305
Ni 10.057836  0.851857  9.944672
Ni 10.051583  2.664873  8.153725
Al  8.281935  0.838162  8.138589
Ni 11.848625  2.671159  9.946899
Ni 13.650339  0.853243  9.944125
Ni 13.641400  2.675036  8.140730
Al 11.861635  0.854726  8.151145
Ni  1.031630  6.231575 13.508936
Ni  2.773157  4.425488 13.519176
Al  4.754221  2.639393  9.893244
Ni  0.933768  4.421593 11.696680
Ni  4.517238  6.250700 13.523881
Ni  6.406641  4.423097 13.568472
Ni  4.587053  8.070016 11.742401
Ni  4.630608  4.401561 11.737477
Al  0.814489  0.836525  8.065339
Ni  0.949006  8.109714 11.665507
Ni  0.946595  9.941972 13.548607
Al  2.791499  2.752798  8.022559
Ni  4.555727  9.904727 13.502454
Ni  6.398771  8.074588 13.549442
Ni  6.431245  9.933972 11.799607
Ni  2.749226  9.931609 11.728228
Ni  0.954368 13.516707 13.535293
Ni  4.577813 11.760730 11.750189
Ni  2.746625 13.547674 11.683675
Al  4.650111 13.531337  9.969281
Ni  4.537348 13.582100 13.524377
Ni  4.603740 11.733872  0.862912
Ni  6.434603 13.539330 11.745802
Al  2.787145 13.445707  8.022222
Ni  0.948062  2.620187 13.512229
Ni  4.565290  0.895034 11.709827
Ni  0.965111  0.847326 11.656757
Ni  4.551791  2.602135 13.535312
Ni  6.412008  0.825627 13.560188
Ni  6.438220  2.630682 11.766287
Ni  2.791390  0.885005  9.809636
Ni  0.946397  6.229012  2.715492
Ni  2.815789  4.441588  2.732743
Al  4.608257  9.980337 10.035858
Ni  0.925318  4.401229  0.895259
Al  1.081343  9.945696  9.823583
Ni  6.475123  4.383875  2.694132
Ni  6.421000  6.255966  0.858597
Ni  4.628658  4.434475  0.892710
Ni  1.039531  9.888724  2.748835
Ni  2.806623  7.989807  2.659619
Ni  2.783721  9.879286  0.884038
Ni  0.968153  8.068812  0.887268
Ni  4.577108  9.838082  2.719469
Ni  6.448294  8.102212  2.659860
Al  2.873815  2.728321  4.661275
Ni  4.549048  7.995624  0.856069
Ni  0.968651  0.878115  0.917573
Al  0.973921 11.650704  4.563257
Ni  1.017398 11.770024  0.961151
Ni  4.557070 13.566473  2.745097
Ni  6.423273 13.544883  0.922529
Ni  2.766542 13.562470  0.913103
Al  4.717023  9.908023  6.342823
Al  2.811670  9.654536  4.530544
Ni  2.816584  0.924918  2.763147
Ni  2.764469  2.663480  0.884097
Ni  4.599920  2.645934  2.738017
Ni  6.419021  2.583612  0.908714
Al  4.878348  6.201658  6.224541
Al  4.752328  8.028322  8.238204
Al  2.780586  6.261246  4.432319
Al  0.923078  6.298035  6.336714
Ni  0.945178  4.476333  4.548528
Ni  6.517537  4.416177  6.314391
Ni  4.709489  4.490484  4.502208
Al  4.593064  0.873404  0.894837
Al  6.370554  0.825340  2.814893
Al  2.688482  0.794135 13.526410
Ni  0.970742  9.813666  6.342120
Al  0.990891  2.678530  2.767984
Ni  0.936035  8.040992  4.541723
Ni  2.897374  7.923246  6.387053
Ni  6.463327  8.104733  6.336703
Ni  6.437729  9.917412  4.487061
Ni  4.712075  7.998785  4.520318
Al  6.270156 11.784054  2.738699
Ni  0.942029 13.477638  6.308180
Ni  2.798106 11.608048  6.280678
Ni  2.772533 13.496090  4.555866
Al  1.026135 13.670692  2.776076
Ni  4.604796 13.477620  6.338670
Ni  6.449227 11.709469  6.314455
Ni  6.427516 13.502832  4.554539
Ni  4.571857 11.658790  4.532634
Al  2.914270 11.694928  2.628644
Ni  0.948906  2.694946  6.313219
Ni  2.768538  0.857211  6.376750
Al  6.250965  9.804088  0.865786
Ni  0.991134  0.902130  4.568628
Ni  4.641718  2.690521  6.361759
Ni  6.455692  0.832058  6.323783
Ni  6.447499  2.618116  4.543612
Ni  4.601255  0.862078  4.593242
Ni  0.961082  6.240677  9.902200
Ni  2.819507  4.381194  9.905831
Ni  2.829214  4.603406  6.318688
Ni  0.924601  4.469957  8.074610
Ni  4.639733  6.240793  9.966552
Ni  6.478490  4.451099  9.967042
Ni  6.481428  6.256610  8.161087
Ni  4.690178  4.483793  8.131285
Al  4.839098  6.231860  2.731216
Ni  0.972266 11.730064 11.689618
Ni  2.812863  8.077967  9.942713
Ni  2.892154  9.837205  8.101839
Ni  0.961276  8.061298  8.128880
Al  2.726744  6.150084  0.912150
Ni  6.403185  6.246381 11.795502
Ni  6.418265  9.904666  8.185698
Ni  6.442581  8.099814 10.028358
Al  2.706451  2.695434 11.676449
Ni  0.986221 13.488684  9.837508
Ni  2.818077 11.738555  9.897649
Al  6.282875 11.816898 13.525348
Ni  0.965260 11.674472  8.065683
Al  2.773236 11.738935 13.559716
Ni  6.437276 11.725547  9.985515
Ni  6.434470 13.507921  8.138132
Ni  4.646994 11.708464  8.142352
Al  2.771310  6.164125 11.648060
Al  2.799377  6.181530  8.259787
Ni  0.961060  2.649380  9.839055
Al  2.732563  8.174976 13.511171
Ni  4.633550  0.836992  8.113720
Ni  6.456343  0.832437  9.943953
Ni  6.466773  2.639030  8.121874
%ENDBLOCK POSITIONS_ABS

FIX_ALL_CELL: TRUE
KPOINT_MP_GRID: 1 1 1
