#######################################################
#CASTEP cell file: /home/u2093113/Documents/kART/CASTEP/castep.cell
#Created using the Atomic Simulation Environment (ASE)#
#######################################################

%BLOCK LATTICE_CART
14.464828  0.000000  0.000000
 0.000000 14.464828  0.000000
 0.000000  0.000000 14.464828
%ENDBLOCK LATTICE_CART

%BLOCK POSITIONS_ABS
Al  8.221625  0.901751  4.574572
Al 11.839811  0.896010  4.552249
Al  8.248932  4.534777  4.575455
Al 11.853601  4.536638  4.561167
Al  8.284223  8.145478  4.501989
Al 11.879718  8.138350  4.534211
Al  8.234708 11.744958  4.566184
Al 11.852800 11.754234  4.536565
Al  8.224424  0.879639  8.150397
Al 11.838547  0.918019  8.143395
Al  8.211883  4.547972  8.136437
Al 11.861980  4.523799  8.155392
Al  8.367266  8.176271  8.173177
Al 11.872586  8.127843  8.167552
Al  8.292792 11.723137  8.090679
Al 11.871620 11.755480  8.146097
Al  8.247736  0.868208 11.761384
Al 11.827244  0.925830 11.773013
Al  8.230808  4.540644 11.778672
Al 11.825763  4.514749 11.768738
Al  8.289815  8.153946 11.833472
Al 11.896660  8.120749 11.786053
Al  8.344893 11.735399 11.874193
Al 11.837165 11.752550 11.786467
Al  8.252183  0.897724  0.955763
Al 11.809586  0.919990  0.944726
Al  8.206750  4.528660  0.957475
Al 11.834990  4.526715  0.937923
Al  8.225612  8.135451  0.945841
Al 11.839533  8.119525  0.949391
Al  8.238183 11.746891  0.931654
Al 11.871643 11.744958  0.950146
Al  4.768898 13.555668  2.730241
Al  0.825102 11.771725  0.917867
Al  2.800001 13.655828  0.817013
Al  4.664998  9.974662  2.816228
Al  2.783884  9.854146  0.840170
Al  4.601343  6.437474  2.857404
Al  0.989871  6.328868  2.722843
Al  2.850618 13.602449 11.898592
Al  0.879328  8.105480 11.895281
Al  4.716480  6.399334 13.586082
Al  2.792088  6.094982 11.756292
Al  4.789650  2.612217 13.524348
Al  4.701862  4.480104  1.048231
Al  2.727441  2.714580 11.674932
Al  0.801129  2.709641 13.602413
Al  4.555502 11.756559  8.159527
Al  6.370222 11.754607 10.079467
Al  2.648500 11.687207  6.327329
Al  0.907721 13.573623  9.910010
Al  6.224440  8.176926  9.941901
Al  0.909567 10.075717  9.917038
Al  2.952536  8.132473  9.797465
Al  4.742131  4.706601  8.101846
Al  4.814569  2.623617  9.971778
Al  2.676782  2.568896  8.138923
Al  2.700685 13.618813  4.519451
Al  6.220574  8.134093  6.387901
Al  2.801633  8.141654  6.380965
Al  2.795763  2.619398  4.459107
Al  2.740418  2.611295  1.114995
Al  2.700336  4.650705  6.269323
Ni  8.214853  2.707154  6.346867
Ni 10.037948  0.900755  6.358269
Ni 10.046962  2.719071  4.572143
Ni 11.855948  2.719822  6.354845
Ni 13.651351  0.911958  6.332651
Ni 13.630738  2.728564  4.547973
Ni  8.230947  6.403162  6.355468
Ni 10.044876  4.534902  6.364301
Ni 10.061778  6.336535  4.557450
Ni 11.868582  6.329785  6.367941
Ni 13.677841  4.524884  6.354387
Ni 13.666822  6.339895  4.555641
Ni  8.226966  9.887696  6.364183
Ni 10.082988  8.144756  6.341916
Ni 10.042470  9.945509  4.544893
Ni 11.865713  9.950900  6.330819
Ni 13.656062  8.138102  6.355266
Ni 13.671599  9.936053  4.528004
Ni  8.223154 13.556300  6.370402
Ni 10.063783 11.744378  6.338742
Ni 10.025831 13.556903  4.550617
Ni 11.846791 13.561054  6.328693
Ni 13.677627 11.757656  6.320569
Ni 13.662140 13.558430  4.536150
Ni  6.525022  2.691341 11.763249
Ni 10.027009  0.908018  9.951002
Ni 10.025242  2.721013  8.142034
Ni 11.824221  2.727992  9.938512
Ni 13.638623  0.929086  9.952007
Ni 13.661022  2.710249  8.139079
Ni  8.242968  6.412141  9.971061
Ni 10.014445  4.527593  9.953628
Ni 10.054539  6.332747  8.163107
Ni 11.855782  6.311499  9.969787
Ni 13.668305  4.519872  9.959026
Ni 13.682786  6.331086  8.172679
Ni  8.229820  9.959411  9.984724
Ni 10.084165  8.148369  9.992986
Ni 10.085726  9.952612  8.164073
Ni 11.887195  9.927857  9.975460
Ni 13.707536  8.118754  9.971781
Ni 13.651262  9.950398  8.129876
Ni  8.244241 13.465633  9.967850
Ni 10.081229 11.734273  9.967285
Ni 10.053602 13.550769  8.159086
Ni 11.845023 13.592236  9.964580
Ni 13.607313 11.786782  9.987022
Ni 13.612169 13.568727  8.114105
Ni  8.226298  2.708730 13.611222
Ni 10.032144  0.911900 13.591228
Ni 10.010578  2.717722 11.768719
Ni 11.841641  2.723325 13.589237
Ni 13.616023  0.879723 13.587961
Ni 13.612126  2.713454 11.731879
Ni  8.200578  6.334590 13.594479
Ni 10.015846  4.523044 13.594550
Ni 10.038071  6.330042 11.781886
Ni 11.826891  6.319540 13.587325
Ni 13.634177  4.548565 13.588584
Ni 13.662443  6.286272 11.781873
Ni  8.248470  9.944456 13.601169
Ni 10.050861  8.126070 13.609021
Ni 10.072859  9.929206 11.788869
Ni 11.853815  9.929836 13.600147
Ni 13.639481  8.104564 13.635092
Ni 13.668086  9.961306 11.799676
Ni  8.261061 13.544510 13.589633
Ni 10.080238 11.744346 13.625908
Ni 10.058280 13.563929 11.772165
Ni 11.825118 13.565388 13.594520
Ni 13.629180 11.772964 13.561633
Ni 13.627324 13.577455 11.792365
Ni  8.236230  2.723414  2.788578
Ni 10.025909  0.904895  2.766343
Ni 10.027142  2.726203  0.949797
Ni 11.819692  2.712824  2.767273
Ni 13.638205  0.913086  2.748776
Ni 13.606022  2.720252  0.979347
Ni  8.224732  6.322127  2.769694
Ni 10.040462  4.531032  2.759915
Ni 10.021092  6.321525  0.942447
Ni 11.859542  6.328311  2.740990
Ni 13.641108  4.515205  2.741393
Ni 13.652940  6.307861  0.915115
Ni  8.228383  9.950326  2.739871
Ni 10.049952  8.131630  2.736249
Ni 10.046436  9.938567  0.944023
Ni 11.842488  9.941464  2.744785
Ni 13.674832  8.149887  2.713660
Ni 13.641649  9.912615  0.924685
Ni  8.216264 13.558456  2.758656
Ni 10.035303 11.751299  2.745105
Ni 10.038406 13.558669  0.950598
Ni 11.838190 13.566894  2.753037
Ni 13.635472 11.743007  2.757315
Ni 13.598051 13.602547  0.936272
Ni  0.994718  2.719954  6.313990
Ni  2.787546  0.884019  6.333625
Ni  0.942112  0.922716  4.525405
Ni  4.519243  2.786935  6.408514
Ni  6.367433  0.891885  6.371759
Ni  4.587442  4.498557  4.570286
Ni  4.634430  0.867973  4.570670
Ni  0.957693  4.505328  4.527508
Ni  0.949811  6.360406  6.348172
Ni  4.568613  7.216399  7.215688
Ni  6.415144  4.564068  6.308193
Ni  6.417026  6.371356  4.576312
Ni  2.757417  6.370852  4.528681
Ni  0.947582  9.913768  6.356171
Ni  4.548566  8.184876  4.568589
Ni  2.756669  9.960587  4.509095
Ni  4.569188 10.013520  6.339610
Ni  6.472775  6.441072  8.166050
Ni  6.422063  9.937588  4.591466
Ni  0.966587 13.574911  6.325415
Ni  4.567600 11.804991  4.549985
Ni  0.988185 11.748901  4.488383
Ni  4.571664 13.523371  6.348564
Ni  6.404101 11.729797  6.338243
Ni  6.420614 13.544017  4.603695
Ni  2.782937 11.791243  2.656877
Ni  0.945705  2.688886  9.937168
Ni  2.806249  0.873923  9.975216
Ni  0.933297  0.872917  8.122716
Ni  6.456654  0.811192  9.950666
Ni  6.394405  2.715267  8.105025
Ni  4.596232  0.876044  8.143343
Ni  1.047147  6.335576  9.992572
Ni  2.863091  4.388905  9.848086
Ni  2.770012  6.276846  8.143931
Ni  0.987281  4.504211  8.149584
Ni  4.597555  6.289050  9.989595
Ni  8.213960  2.710609  9.920786
Ni  6.439988  4.565539  9.973085
Ni  0.926408 11.795190  8.132217
Ni  0.992742  8.136855  8.183797
Ni  4.561041 10.033505  9.999414
Ni  6.391833  9.962229  8.171914
Ni  2.760899  9.990441  8.166463
Ni  2.751953 11.828935 10.023011
Ni  2.780223 13.563717  8.122137
Ni  4.613794 13.564093  9.958251
Ni  6.403200 13.485619  8.164558
Ni  0.951210  0.899706 11.765397
Ni  6.471070  0.849174 13.599729
Ni  4.657001  0.896636 11.773146
Ni  1.023065  6.245347 13.596894
Ni  0.958981  4.466266 11.762016
Ni  2.867461  4.321495 13.682245
Ni  6.381978  4.524302 13.597341
Ni  6.428556  6.371651 11.748011
Ni  4.650030  4.462648 11.765218
Ni  0.961284  9.957000 13.598869
Ni  2.786575  8.056885 13.530521
Ni  2.703014  9.915598 11.728359
Ni  4.594594  9.927831 13.552568
Ni  6.418417  8.175666 13.598777
Ni  6.404713  9.932743 11.795534
Ni  4.525078  8.143136 11.781434
Ni  0.950438 13.612702 13.602008
Ni  2.759191 11.738336 13.649069
Ni  0.979978 11.816279 11.834358
Ni  4.650948 13.575088 13.606431
Ni  6.403848 11.738707 13.582614
Ni  6.421214 13.527311 11.798221
Ni  4.560266 11.748360 11.842482
Ni  0.928508  2.713614  2.762309
Ni  2.816097  0.790438  2.730726
Ni  2.782687  1.097801 13.579187
Ni  0.933784  0.913934  0.942631
Ni  4.645658  2.658571  2.764333
Ni  6.439143  0.930449  2.763417
Ni  6.448838  2.699814  0.970740
Ni  4.664356  0.900016  0.935962
Ni  0.977400  8.162439  4.534544
Ni  2.821724  4.533217  2.739112
Ni  2.885250  6.304389  0.893333
Ni  0.992199  4.495146  0.941678
Ni  6.385499  2.712025  4.591252
Ni  6.386682  6.329299  0.981660
Ni  6.406258  4.511916  2.813038
Ni  0.991455  9.947012  2.689245
Ni  2.773664  8.177635  2.719267
Ni  0.991519  8.089433  0.881685
Ni  6.424087  8.154379  2.753981
Ni  6.411780  9.948234  0.908904
Ni  4.633385  8.188131  0.940847
Ni  0.940511 13.564471  2.700778
Ni  4.627844 11.733843  0.906474
Ni  6.440374 11.734779  2.745887
Ni  6.462421 13.545007  0.904161
%ENDBLOCK POSITIONS_ABS

