#######################################################
#CASTEP cell file: /home/u2093113/Documents/kART/CASTEP/castep.cell
#Created using the Atomic Simulation Environment (ASE)#
#######################################################

%BLOCK LATTICE_CART
14.464828  0.000000  0.000000
 0.000000 14.464828  0.000000
 0.000000  0.000000 14.464828
%ENDBLOCK LATTICE_CART

%BLOCK POSITIONS_ABS
Al  8.226457  0.903744  4.574460
Al 11.841280  0.896541  4.551784
Al  8.245584  4.538807  4.581387
Al 11.853069  4.542859  4.563369
Al  8.275640  8.151184  4.513675
Al 11.879479  8.141799  4.539276
Al  8.236942 11.747200  4.567889
Al 11.854189 11.753167  4.539057
Al  8.230183  0.879892  8.150966
Al 11.839144  0.920646  8.146824
Al  8.205622  4.547116  8.136423
Al 11.862837  4.527689  8.156142
Al  8.352144  8.177183  8.178917
Al 11.870587  8.131361  8.170104
Al  8.294914 11.731723  8.093070
Al 11.871867 11.754902  8.151841
Al  8.253348  0.871031 11.766895
Al 11.828190  0.928763 11.777205
Al  8.231749  4.542846 11.780451
Al 11.823426  4.521905 11.768613
Al  8.277102  8.154966 11.819950
Al 11.896095  8.122531 11.782160
Al  8.346751 11.737295 11.877210
Al 11.835512 11.749410 11.786531
Al  8.257786  0.900882  0.959092
Al 11.809472  0.921994  0.944677
Al  8.207222  4.535744  0.961323
Al 11.833805  4.536274  0.937710
Al  8.224480  8.137536  0.949304
Al 11.837723  8.121323  0.948559
Al  8.243585 11.746214  0.932402
Al 11.873446 11.741278  0.948749
Al  4.769805 13.557451  2.725552
Al  0.825452 11.769533  0.915085
Al  2.800796 13.655103  0.816130
Al  4.665506  9.977275  2.815785
Al  2.786928  9.851971  0.838581
Al  4.601365  6.445050  2.864909
Al  0.988788  6.335826  2.724128
Al  2.852088 13.609531 11.906519
Al  0.895161  8.107878 11.879757
Al  4.716109  6.402081 13.581431
Al  2.796762  6.107287 11.741927
Al  4.792419  2.615306 13.530268
Al  4.703510  4.487925  1.051894
Al  2.725148  2.714836 11.681968
Al  0.799471  2.715547 13.604333
Al  4.557496 11.771342  8.162407
Al  6.373631 11.772773 10.083720
Al  2.646148 11.703721  6.329163
Al  0.906548 13.578612  9.915945
Al  6.184018  8.175729  9.901599
Al  0.926392 10.068561  9.914858
Al  3.038885  8.133865  9.709796
Al  4.736885  4.657551  8.130719
Al  4.813095  2.607052  9.983811
Al  2.672495  2.561430  8.139948
Al  2.696558 13.620856  4.511909
Al  6.201851  8.190043  6.432870
Al  2.826361  8.158216  6.425398
Al  2.791372  2.616180  4.452088
Al  2.740102  2.618743  1.116033
Al  2.687146  4.633973  6.271705
Ni  8.216414  2.706220  6.348149
Ni 10.042591  0.903142  6.359716
Ni 10.049225  2.722297  4.574010
Ni 11.855743  2.723228  6.355292
Ni 13.648589  0.913323  6.332231
Ni 13.629218  2.732796  4.545723
Ni  8.228712  6.406115  6.363280
Ni 10.044239  4.536703  6.368312
Ni 10.059837  6.341283  4.562904
Ni 11.868533  6.335020  6.371160
Ni 13.676594  4.527573  6.355113
Ni 13.667995  6.346807  4.558614
Ni  8.224567  9.895555  6.371201
Ni 10.077672  8.147762  6.348967
Ni 10.042141  9.947074  4.550206
Ni 11.865653  9.952202  6.336635
Ni 13.659386  8.143653  6.361746
Ni 13.673580  9.936155  4.532577
Ni  8.228783 13.560540  6.369360
Ni 10.065796 11.746705  6.342613
Ni 10.030207 13.557705  4.551493
Ni 11.847465 13.561050  6.329816
Ni 13.679098 11.758621  6.324640
Ni 13.663037 13.557916  4.535365
Ni  6.530208  2.689887 11.768998
Ni 10.030412  0.909855  9.954507
Ni 10.027074  2.722845  8.143443
Ni 11.822935  2.732957  9.941501
Ni 13.635793  0.930637  9.957740
Ni 13.657576  2.710159  8.141663
Ni  8.225957  6.410171  9.957729
Ni 10.011598  4.531024  9.952258
Ni 10.051868  6.335300  8.164915
Ni 11.853573  6.316280  9.970327
Ni 13.668392  4.523582  9.960362
Ni 13.683607  6.336617  8.175500
Ni  8.222313  9.965500  9.985043
Ni 10.075275  8.148957  9.991131
Ni 10.080097  9.953239  8.167707
Ni 11.886212  9.926633  9.976680
Ni 13.713475  8.121660  9.970225
Ni 13.656035  9.952263  8.136239
Ni  8.249150 13.469565  9.971992
Ni 10.079532 11.733989  9.969374
Ni 10.058011 13.553669  8.162614
Ni 11.846541 13.590792  9.970435
Ni 13.612868 11.783489  9.991097
Ni 13.608990 13.570398  8.117961
Ni  8.229128  2.713261 13.616514
Ni 10.035062  0.914583 13.594486
Ni 10.011746  2.722095 11.772021
Ni 11.842500  2.730022 13.591202
Ni 13.615929  0.882573 13.589900
Ni 13.611977  2.719751 11.734289
Ni  8.197813  6.339813 13.593454
Ni 10.014908  4.529514 13.595993
Ni 10.029336  6.335241 11.777143
Ni 11.823943  6.326668 13.582902
Ni 13.634215  4.557179 13.587427
Ni 13.667582  6.293677 11.778902
Ni  8.248712  9.942656 13.599982
Ni 10.044824  8.128047 13.604666
Ni 10.068243  9.927383 11.787314
Ni 11.853941  9.926925 13.596364
Ni 13.645575  8.105511 13.627707
Ni 13.673988  9.959441 11.797057
Ni  8.265347 13.546681 13.593994
Ni 10.081517 11.742482 13.626906
Ni 10.060638 13.564000 11.775606
Ni 11.826112 13.563980 13.595494
Ni 13.631514 11.771761 13.558765
Ni 13.629462 13.576799 11.796175
Ni  8.239168  2.727339  2.789912
Ni 10.029461  0.906399  2.768704
Ni 10.029545  2.731922  0.952460
Ni 11.818939  2.717913  2.767330
Ni 13.637072  0.915105  2.746511
Ni 13.605004  2.726813  0.979803
Ni  8.223313  6.328793  2.777475
Ni 10.039979  4.537013  2.763888
Ni 10.019188  6.327768  0.944265
Ni 11.859363  6.334618  2.743822
Ni 13.639698  4.521809  2.740634
Ni 13.653687  6.314662  0.912995
Ni  8.230024  9.951688  2.742440
Ni 10.047696  8.134637  2.743278
Ni 10.047243  9.937171  0.944798
Ni 11.842556  9.941048  2.746297
Ni 13.676745  8.153943  2.716806
Ni 13.644169  9.911152  0.921500
Ni  8.220999 13.559530  2.759392
Ni 10.037987 11.751314  2.747923
Ni 10.041815 13.558142  0.952437
Ni 11.840968 13.565974  2.751993
Ni 13.635202 11.741143  2.756573
Ni 13.598312 13.601976  0.934374
Ni  0.989375  2.717595  6.312648
Ni  2.782338  0.881300  6.329892
Ni  0.938706  0.924899  4.519900
Ni  4.516379  2.765339  6.402300
Ni  6.370067  0.890916  6.369536
Ni  4.580550  4.483332  4.557782
Ni  4.633783  0.866592  4.565263
Ni  0.954505  4.509368  4.527132
Ni  0.945772  6.363423  6.354016
Ni  4.591525  6.305866  6.304826
Ni  6.412570  4.546341  6.310827
Ni  6.413015  6.383496  4.591130
Ni  2.756649  6.376028  4.539664
Ni  0.954542  9.919426  6.363777
Ni  4.545132  8.196352  4.586239
Ni  2.757864  9.968226  4.515399
Ni  4.563812 10.051952  6.336567
Ni  6.445379  6.429830  8.150833
Ni  6.419526  9.947393  4.592763
Ni  0.964442 13.578065  6.324957
Ni  4.564329 11.820757  4.536757
Ni  0.987517 11.748558  4.487833
Ni  4.570562 13.527874  6.346080
Ni  6.406343 11.741321  6.335507
Ni  6.424423 13.548797  4.599383
Ni  2.779574 11.788150  2.651305
Ni  0.943281  2.686777  9.941179
Ni  2.805585  0.877382  9.980003
Ni  0.928182  0.871796  8.125274
Ni  6.463441  0.811180  9.954420
Ni  6.392911  2.704864  8.109703
Ni  4.596576  0.874030  8.142791
Ni  1.055800  6.339336  9.982085
Ni  2.858811  4.378335  9.852070
Ni  2.773442  6.261969  8.147244
Ni  0.979750  4.497321  8.150944
Ni  4.602817  6.260130 10.001945
Ni  8.218485  2.708963  9.923294
Ni  6.441468  4.552660  9.980283
Ni  0.921845 11.805655  8.139156
Ni  1.010163  8.141099  8.187615
Ni  4.563269 10.061035 10.004857
Ni  6.389190  9.990564  8.181296
Ni  2.767399 10.022001  8.169321
Ni  2.754600 11.838984 10.029424
Ni  2.778536 13.571048  8.125791
Ni  4.615186 13.572558  9.963414
Ni  6.406826 13.492943  8.164013
Ni  0.949962  0.901507 11.770851
Ni  6.476210  0.853456 13.606606
Ni  4.661008  0.895886 11.781438
Ni  1.028730  6.250717 13.592140
Ni  0.961705  4.472682 11.760433
Ni  2.868647  4.328521 13.683540
Ni  6.384240  4.529707 13.597687
Ni  6.425262  6.371713 11.742205
Ni  4.646687  4.450518 11.772893
Ni  0.966186  9.954655 13.594538
Ni  2.794005  8.058768 13.522859
Ni  2.711427  9.918133 11.722444
Ni  4.597833  9.924840 13.548245
Ni  6.418426  8.176959 13.593616
Ni  6.403472  9.934877 11.788936
Ni  4.524757  8.144703 11.758753
Ni  0.952518 13.612660 13.603629
Ni  2.763137 11.738088 13.647923
Ni  0.983674 11.815850 11.834345
Ni  4.656184 13.578015 13.611624
Ni  6.409324 11.738483 13.584576
Ni  6.427024 13.533737 11.806634
Ni  4.565437 11.758806 11.852715
Ni  0.926772  2.718990  2.759369
Ni  2.814926  0.790375  2.724293
Ni  2.782765  1.103746 13.584116
Ni  0.932925  0.916458  0.941961
Ni  4.645329  2.659734  2.760277
Ni  6.441546  0.933333  2.760135
Ni  6.451672  2.706269  0.974243
Ni  4.666571  0.901688  0.936100
Ni  0.983955  8.167743  4.545149
Ni  2.818446  4.541249  2.739001
Ni  2.887336  6.312307  0.895148
Ni  0.991999  4.503208  0.940293
Ni  6.388637  2.707305  4.587870
Ni  6.387313  6.334211  0.984438
Ni  6.408361  4.519402  2.818483
Ni  0.992012  9.946676  2.689954
Ni  2.777338  8.182182  2.724961
Ni  0.994935  8.091142  0.880066
Ni  6.421515  8.158263  2.761674
Ni  6.415504  9.947907  0.908968
Ni  4.637181  8.188927  0.939700
Ni  0.939111 13.562911  2.696250
Ni  4.632742 11.731866  0.905743
Ni  6.445305 11.736991  2.744577
Ni  6.467831 13.546403  0.905149
%ENDBLOCK POSITIONS_ABS

