#######################################################
#CASTEP cell file: /home/u2093113/Documents/kART/CASTEP/castep.cell
#Created using the Atomic Simulation Environment (ASE)#
#######################################################

%BLOCK LATTICE_CART
14.464828  0.000000  0.000000
 0.000000 14.464828  0.000000
 0.000000  0.000000 14.464828
%ENDBLOCK LATTICE_CART

%BLOCK POSITIONS_ABS
Al  8.216793  0.899758  4.574685
Al 11.838343  0.895480  4.552714
Al  8.252281  4.530748  4.569524
Al 11.854134  4.530416  4.558964
Al  8.292807  8.139772  4.490302
Al 11.879957  8.134901  4.529146
Al  8.232474 11.742717  4.564479
Al 11.851411 11.755302  4.534072
Al  8.218665  0.879385  8.149829
Al 11.837951  0.915391  8.139966
Al  8.218144  4.548828  8.136450
Al 11.861122  4.519910  8.154643
Al  8.382388  8.175359  8.167437
Al 11.874584  8.124326  8.165001
Al  8.290669 11.714551  8.088288
Al 11.871374 11.756058  8.140354
Al  8.242125  0.865386 11.755872
Al 11.826297  0.922896 11.768821
Al  8.229866  4.538441 11.776893
Al 11.828100  4.507593 11.768863
Al  8.302528  8.152926 11.846993
Al 11.897225  8.118967 11.789946
Al  8.343036 11.733503 11.871176
Al 11.838818 11.755690 11.786403
Al  8.246581  0.894566  0.952434
Al 11.809700  0.917985  0.944775
Al  8.206278  4.521576  0.953627
Al 11.836175  4.517155  0.938135
Al  8.226744  8.133365  0.942379
Al 11.841343  8.117726  0.950223
Al  8.232780 11.747568  0.930906
Al 11.869841 11.748639  0.951542
Al  4.767991 13.553886  2.734931
Al  0.824751 11.773918  0.920650
Al  2.799206 13.656552  0.817895
Al  4.664490  9.972049  2.816672
Al  2.780840  9.856321  0.841759
Al  4.601320  6.429899  2.849900
Al  0.990954  6.321911  2.721557
Al  2.849148 13.595367 11.890664
Al  0.863495  8.103082 11.910805
Al  4.716850  6.396588 13.590732
Al  2.787414  6.082677 11.770658
Al  4.786880  2.609128 13.518428
Al  4.700214  4.472283  1.044567
Al  2.729733  2.714324 11.667897
Al  0.802787  2.703736 13.600494
Al  4.553507 11.741776  8.156648
Al  6.366812 11.736441 10.075215
Al  2.650853 11.670692  6.325496
Al  0.908894 13.568634  9.904076
Al  6.264861  8.178123  9.982202
Al  0.892742 10.082873  9.919218
Al  2.866188  8.131080  9.885134
Al  4.747378  4.755652  8.072973
Al  4.816043  2.640182  9.959745
Al  2.681069  2.576363  8.137897
Al  2.704811 13.616771  4.526993
Al  6.239298  8.078143  6.342932
Al  2.776905  8.125092  6.336532
Al  2.800155  2.622616  4.466126
Al  2.740733  2.603847  1.113957
Al  2.713525  4.667437  6.266941
Ni  8.213291  2.708088  6.345585
Ni 10.033304  0.898367  6.356821
Ni 10.044699  2.715845  4.570277
Ni 11.856153  2.716416  6.354397
Ni 13.654114  0.910593  6.333070
Ni 13.632258  2.724332  4.550223
Ni  8.233183  6.400209  6.347656
Ni 10.045512  4.533101  6.360290
Ni 10.063718  6.331788  4.551996
Ni 11.868631  6.324550  6.364721
Ni 13.679089  4.522195  6.353661
Ni 13.665650  6.332983  4.552667
Ni  8.229364  9.879836  6.357165
Ni 10.088305  8.141749  6.334865
Ni 10.042799  9.943943  4.539580
Ni 11.865773  9.949598  6.325003
Ni 13.652737  8.132551  6.348786
Ni 13.669618  9.935951  4.523431
Ni  8.217525 13.552060  6.371444
Ni 10.061769 11.742052  6.334872
Ni 10.021455 13.556101  4.549742
Ni 11.846117 13.561059  6.327569
Ni 13.676156 11.756691  6.316499
Ni 13.661243 13.558945  4.536935
Ni  6.519836  2.692794 11.757500
Ni 10.023606  0.906181  9.947498
Ni 10.023411  2.719182  8.140624
Ni 11.825506  2.723027  9.935523
Ni 13.641453  0.927536  9.946274
Ni 13.664468  2.710338  8.136495
Ni  8.259978  6.414111  9.984393
Ni 10.017292  4.524161  9.954999
Ni 10.057210  6.330194  8.161300
Ni 11.857990  6.306717  9.969247
Ni 13.668217  4.516161  9.957690
Ni 13.681964  6.325555  8.169857
Ni  8.237326  9.953322  9.984405
Ni 10.093055  8.147781  9.994841
Ni 10.091356  9.951985  8.160440
Ni 11.888177  9.929081  9.974239
Ni 13.701597  8.115847  9.973338
Ni 13.646490  9.948533  8.123514
Ni  8.239332 13.461701  9.963707
Ni 10.082925 11.734558  9.965197
Ni 10.049193 13.547869  8.155559
Ni 11.843506 13.593681  9.958725
Ni 13.601758 11.790075  9.982947
Ni 13.615349 13.567056  8.110249
Ni  8.223468  2.704199 13.605930
Ni 10.029227  0.909217 13.587970
Ni 10.009411  2.713349 11.765417
Ni 11.840783  2.716627 13.587272
Ni 13.616116  0.876874 13.586022
Ni 13.612274  2.707158 11.729470
Ni  8.203342  6.329367 13.595503
Ni 10.016784  4.516574 13.593108
Ni 10.046807  6.324842 11.786629
Ni 11.829839  6.312412 13.591747
Ni 13.634138  4.539951 13.589741
Ni 13.657304  6.278867 11.784843
Ni  8.248228  9.946256 13.602355
Ni 10.056897  8.124094 13.613375
Ni 10.077476  9.931029 11.790425
Ni 11.853688  9.932747 13.603929
Ni 13.633386  8.103618 13.642476
Ni 13.662184  9.963171 11.802295
Ni  8.256775 13.542338 13.585273
Ni 10.078959 11.746209 13.624911
Ni 10.055921 13.563858 11.768723
Ni 11.824125 13.566797 13.593546
Ni 13.626847 11.774166 13.564502
Ni 13.625185 13.578111 11.788556
Ni  8.233292  2.719490  2.787245
Ni 10.022358  0.903392  2.763983
Ni 10.024739  2.720484  0.947134
Ni 11.820445  2.707734  2.767216
Ni 13.639337  0.911067  2.751041
Ni 13.607039  2.713692  0.978892
Ni  8.226152  6.315460  2.761914
Ni 10.040946  4.525051  2.755942
Ni 10.022996  6.315282  0.940629
Ni 11.859722  6.322005  2.738157
Ni 13.642518  4.508601  2.742153
Ni 13.652193  6.301061  0.917236
Ni  8.226742  9.948964  2.737302
Ni 10.052209  8.128622  2.729220
Ni 10.045629  9.939963  0.943248
Ni 11.842420  9.941880  2.743273
Ni 13.672919  8.145831  2.710513
Ni 13.639129  9.914077  0.927871
Ni  8.211529 13.557382  2.757920
Ni 10.032619 11.751284  2.742287
Ni 10.034998 13.559196  0.948758
Ni 11.835412 13.567814  2.754081
Ni 13.635741 11.744872  2.758058
Ni 13.597789 13.603118  0.938169
Ni  1.000061  2.722313  6.315333
Ni  2.792755  0.886738  6.337358
Ni  0.945518  0.920532  4.530909
Ni  4.522107  2.808530  6.414728
Ni  6.364799  0.892853  6.373982
Ni  4.594335  4.513783  4.582790
Ni  4.635076  0.869355  4.576077
Ni  0.960881  4.501289  4.527883
Ni  0.953850  6.357390  6.342329
Ni  4.545701  8.126932  8.126549
Ni  6.417717  4.581796  6.305558
Ni  6.421038  6.359215  4.561495
Ni  2.758185  6.365677  4.517699
Ni  0.940623  9.908110  6.348566
Ni  4.552000  8.173400  4.550939
Ni  2.755473  9.952948  4.502790
Ni  4.574565  9.975089  6.342653
Ni  6.500172  6.452314  8.181268
Ni  6.424600  9.927782  4.590169
Ni  0.968733 13.571757  6.325874
Ni  4.570871 11.789224  4.563213
Ni  0.988852 11.749244  4.488933
Ni  4.572765 13.518868  6.351048
Ni  6.401860 11.718273  6.340978
Ni  6.416804 13.539237  4.608007
Ni  2.786300 11.794335  2.662449
Ni  0.948129  2.690995  9.933157
Ni  2.806913  0.870464  9.970428
Ni  0.938412  0.874038  8.120158
Ni  6.449868  0.811204  9.946913
Ni  6.395899  2.725669  8.100347
Ni  4.595888  0.878059  8.143894
Ni  1.038494  6.331816 10.003059
Ni  2.867370  4.399476  9.844101
Ni  2.766583  6.291723  8.140618
Ni  0.994812  4.511101  8.148224
Ni  4.592293  6.317970  9.977246
Ni  8.209434  2.712255  9.918278
Ni  6.438509  4.578417  9.965887
Ni  0.930972 11.784725  8.125279
Ni  0.975321  8.132612  8.179978
Ni  4.558812 10.005974  9.993971
Ni  6.394476  9.933894  8.162532
Ni  2.754399  9.958881  8.163604
Ni  2.749306 11.818885 10.016597
Ni  2.781910 13.556386  8.118483
Ni  4.612401 13.555629  9.953088
Ni  6.399574 13.478295  8.165102
Ni  0.952458  0.897905 11.759943
Ni  6.465929  0.844892 13.592853
Ni  4.652995  0.897386 11.764854
Ni  1.017400  6.239976 13.601648
Ni  0.956258  4.459849 11.763598
Ni  2.866274  4.314470 13.680950
Ni  6.379717  4.518897 13.596995
Ni  6.431849  6.371589 11.753818
Ni  4.653374  4.474777 11.757542
Ni  0.956382  9.959344 13.603200
Ni  2.779145  8.055003 13.538183
Ni  2.694601  9.913064 11.734274
Ni  4.591354  9.930823 13.556891
Ni  6.418409  8.174374 13.603937
Ni  6.405954  9.930609 11.802131
Ni  4.525398  8.141569 11.804116
Ni  0.948358 13.612744 13.600387
Ni  2.755244 11.738584 13.650214
Ni  0.976283 11.816708 11.834372
Ni  4.645712 13.572160 13.601238
Ni  6.398372 11.738932 13.580652
Ni  6.415404 13.520885 11.789808
Ni  4.555095 11.737913 11.832249
Ni  0.930243  2.708238  2.765248
Ni  2.817267  0.790500  2.737160
Ni  2.782610  1.091856 13.574259
Ni  0.934643  0.911411  0.943302
Ni  4.645987  2.657408  2.768388
Ni  6.436740  0.927565  2.766699
Ni  6.446003  2.693360  0.967238
Ni  4.662142  0.898343  0.935823
Ni  0.970845  8.157136  4.523940
Ni  2.825002  4.525185  2.739223
Ni  2.883164  6.296471  0.891518
Ni  0.992399  4.487083  0.943063
Ni  6.382362  2.716745  4.594634
Ni  6.386051  6.324388  0.978882
Ni  6.404156  4.504429  2.807594
Ni  0.990898  9.947348  2.688536
Ni  2.769991  8.173088  2.713572
Ni  0.988104  8.087724  0.883304
Ni  6.426659  8.150495  2.746289
Ni  6.408057  9.948561  0.908840
Ni  4.629589  8.187336  0.941994
Ni  0.941912 13.566031  2.705306
Ni  4.622945 11.735819  0.907204
Ni  6.435443 11.732567  2.747197
Ni  6.457012 13.543611  0.903173
%ENDBLOCK POSITIONS_ABS

