%block lattice_abc 
  14.46482773 14.46482773 14.46482773 #lattice params 
 90.0  90.0  90.0 
     %endblock lattice_abc 
     fix_all_cell : true 
     %BLOCK POSITIONS_ABS 
Al  8.226457  0.903744  4.574460
 Al 11.841280  0.896541  4.551784
 Al  8.245584  4.538807  4.581387
 Al 11.853069  4.542859  4.563369
 Al  8.275640  8.151184  4.513675
 Al 11.879479  8.141799  4.539276
 Al  8.236942 11.747200  4.567889
 Al 11.854189 11.753167  4.539057
 Al  8.230183  0.879892  8.150966
 Al 11.839144  0.920646  8.146824
 Al  8.205622  4.547116  8.136423
 Al 11.862837  4.527689  8.156142
 Al  8.352144  8.177183  8.178917
 Al 11.870587  8.131361  8.170104
 Al  8.294914 11.731723  8.093070
 Al 11.871867 11.754902  8.151841
 Al  8.253348  0.871031 11.766895
 Al 11.828190  0.928763 11.777205
 Al  8.231749  4.542846 11.780451
 Al 11.823426  4.521905 11.768613
 Al  8.277102  8.154966 11.819950
 Al 11.896095  8.122531 11.782160
 Al  8.346751 11.737295 11.877210
 Al 11.835512 11.749410 11.786531
 Al  8.257786  0.900882  0.959092
 Al 11.809472  0.921994  0.944677
 Al  8.207222  4.535744  0.961323
 Al 11.833805  4.536274  0.937710
 Al  8.224480  8.137536  0.949304
 Al 11.837723  8.121323  0.948559
 Al  8.243585 11.746214  0.932402
 Al 11.873446 11.741278  0.948749
 Al  4.769805 13.557451  2.725552
 Al  0.825452 11.769533  0.915085
 Al  2.800796 13.655103  0.816130
 Al  4.665506  9.977275  2.815785
 Al  2.786928  9.851971  0.838581
 Al  4.601365  6.445050  2.864909
 Al  0.988788  6.335826  2.724128
 Al  2.852088 13.609531 11.906519
 Al  0.895161  8.107878 11.879757
 Al  4.716109  6.402081 13.581431
 Al  2.796762  6.107287 11.741927
 Al  4.792419  2.615306 13.530268
 Al  4.703510  4.487925  1.051894
 Al  2.725148  2.714836 11.681968
 Al  0.799471  2.715547 13.604333
 Al  4.557496 11.771342  8.162407
 Al  6.373631 11.772773 10.083720
 Al  2.646148 11.703721  6.329163
 Al  0.906548 13.578612  9.915945
 Al  6.184018  8.175729  9.901599
 Al  0.926392 10.068561  9.914858
 Al  3.038885  8.133865  9.709796
 Al  4.736885  4.657551  8.130719
 Al  4.813095  2.607052  9.983811
 Al  2.672495  2.561430  8.139948
 Al  2.696558 13.620856  4.511909
 Al  6.201851  8.190043  6.432870
 Al  2.826361  8.158216  6.425398
 Al  2.791372  2.616180  4.452088
 Al  2.740102  2.618743  1.116033
 Al  2.687146  4.633973  6.271705
 Ni  8.216414  2.706220  6.348149
 Ni 10.042591  0.903142  6.359716
 Ni 10.049225  2.722297  4.574010
 Ni 11.855743  2.723228  6.355292
 Ni 13.648589  0.913323  6.332231
 Ni 13.629218  2.732796  4.545723
 Ni  8.228712  6.406115  6.363280
 Ni 10.044239  4.536703  6.368312
 Ni 10.059837  6.341283  4.562904
 Ni 11.868533  6.335020  6.371160
 Ni 13.676594  4.527573  6.355113
 Ni 13.667995  6.346807  4.558614
 Ni  8.224567  9.895555  6.371201
 Ni 10.077672  8.147762  6.348967
 Ni 10.042141  9.947074  4.550206
 Ni 11.865653  9.952202  6.336635
 Ni 13.659386  8.143653  6.361746
 Ni 13.673580  9.936155  4.532577
 Ni  8.228783 13.560540  6.369360
 Ni 10.065796 11.746705  6.342613
 Ni 10.030207 13.557705  4.551493
 Ni 11.847465 13.561050  6.329816
 Ni 13.679098 11.758621  6.324640
 Ni 13.663037 13.557916  4.535365
 Ni  6.530208  2.689887 11.768998
 Ni 10.030412  0.909855  9.954507
 Ni 10.027074  2.722845  8.143443
 Ni 11.822935  2.732957  9.941501
 Ni 13.635793  0.930637  9.957740
 Ni 13.657576  2.710159  8.141663
 Ni  8.225957  6.410171  9.957729
 Ni 10.011598  4.531024  9.952258
 Ni 10.051868  6.335300  8.164915
 Ni 11.853573  6.316280  9.970327
 Ni 13.668392  4.523582  9.960362
 Ni 13.683607  6.336617  8.175500
 Ni  8.222313  9.965500  9.985043
 Ni 10.075275  8.148957  9.991131
 Ni 10.080097  9.953239  8.167707
 Ni 11.886212  9.926633  9.976680
 Ni 13.713475  8.121660  9.970225
 Ni 13.656035  9.952263  8.136239
 Ni  8.249150 13.469565  9.971992
 Ni 10.079532 11.733989  9.969374
 Ni 10.058011 13.553669  8.162614
 Ni 11.846541 13.590792  9.970435
 Ni 13.612868 11.783489  9.991097
 Ni 13.608990 13.570398  8.117961
 Ni  8.229128  2.713261 13.616514
 Ni 10.035062  0.914583 13.594486
 Ni 10.011746  2.722095 11.772021
 Ni 11.842500  2.730022 13.591202
 Ni 13.615929  0.882573 13.589900
 Ni 13.611977  2.719751 11.734289
 Ni  8.197813  6.339813 13.593454
 Ni 10.014908  4.529514 13.595993
 Ni 10.029336  6.335241 11.777143
 Ni 11.823943  6.326668 13.582902
 Ni 13.634215  4.557179 13.587427
 Ni 13.667582  6.293677 11.778902
 Ni  8.248712  9.942656 13.599982
 Ni 10.044824  8.128047 13.604666
 Ni 10.068243  9.927383 11.787314
 Ni 11.853941  9.926925 13.596364
 Ni 13.645575  8.105511 13.627707
 Ni 13.673988  9.959441 11.797057
 Ni  8.265347 13.546681 13.593994
 Ni 10.081517 11.742482 13.626906
 Ni 10.060638 13.564000 11.775606
 Ni 11.826112 13.563980 13.595494
 Ni 13.631514 11.771761 13.558765
 Ni 13.629462 13.576799 11.796175
 Ni  8.239168  2.727339  2.789912
 Ni 10.029461  0.906399  2.768704
 Ni 10.029545  2.731922  0.952460
 Ni 11.818939  2.717913  2.767330
 Ni 13.637072  0.915105  2.746511
 Ni 13.605004  2.726813  0.979803
 Ni  8.223313  6.328793  2.777475
 Ni 10.039979  4.537013  2.763888
 Ni 10.019188  6.327768  0.944265
 Ni 11.859363  6.334618  2.743822
 Ni 13.639698  4.521809  2.740634
 Ni 13.653687  6.314662  0.912995
 Ni  8.230024  9.951688  2.742440
 Ni 10.047696  8.134637  2.743278
 Ni 10.047243  9.937171  0.944798
 Ni 11.842556  9.941048  2.746297
 Ni 13.676745  8.153943  2.716806
 Ni 13.644169  9.911152  0.921500
 Ni  8.220999 13.559530  2.759392
 Ni 10.037987 11.751314  2.747923
 Ni 10.041815 13.558142  0.952437
 Ni 11.840968 13.565974  2.751993
 Ni 13.635202 11.741143  2.756573
 Ni 13.598312 13.601976  0.934374
 Ni  0.989375  2.717595  6.312648
 Ni  2.782338  0.881300  6.329892
 Ni  0.938706  0.924899  4.519900
 Ni  4.516379  2.765339  6.402300
 Ni  6.370067  0.890916  6.369536
 Ni  4.580550  4.483332  4.557782
 Ni  4.633783  0.866592  4.565263
 Ni  0.954505  4.509368  4.527132
 Ni  0.945772  6.363423  6.354016
 Ni  4.591525  6.305866  6.304826
 Ni  6.412570  4.546341  6.310827
 Ni  6.413015  6.383496  4.591130
 Ni  2.756649  6.376028  4.539664
 Ni  0.954542  9.919426  6.363777
 Ni  4.545132  8.196352  4.586239
 Ni  2.757864  9.968226  4.515399
 Ni  4.563812 10.051952  6.336567
 Ni  6.445379  6.429830  8.150833
 Ni  6.419526  9.947393  4.592763
 Ni  0.964442 13.578065  6.324957
 Ni  4.564329 11.820757  4.536757
 Ni  0.987517 11.748558  4.487833
 Ni  4.570562 13.527874  6.346080
 Ni  6.406343 11.741321  6.335507
 Ni  6.424423 13.548797  4.599383
 Ni  2.779574 11.788150  2.651305
 Ni  0.943281  2.686777  9.941179
 Ni  2.805585  0.877382  9.980003
 Ni  0.928182  0.871796  8.125274
 Ni  6.463441  0.811180  9.954420
 Ni  6.392911  2.704864  8.109703
 Ni  4.596576  0.874030  8.142791
 Ni  1.055800  6.339336  9.982085
 Ni  2.858811  4.378335  9.852070
 Ni  2.773442  6.261969  8.147244
 Ni  0.979750  4.497321  8.150944
 Ni  4.602817  6.260130 10.001945
 Ni  8.218485  2.708963  9.923294
 Ni  6.441468  4.552660  9.980283
 Ni  0.921845 11.805655  8.139156
 Ni  1.010163  8.141099  8.187615
 Ni  4.563269 10.061035 10.004857
 Ni  6.389190  9.990564  8.181296
 Ni  2.767399 10.022001  8.169321
 Ni  2.754600 11.838984 10.029424
 Ni  2.778536 13.571048  8.125791
 Ni  4.615186 13.572558  9.963414
 Ni  6.406826 13.492943  8.164013
 Ni  0.949962  0.901507 11.770851
 Ni  6.476210  0.853456 13.606606
 Ni  4.661008  0.895886 11.781438
 Ni  1.028730  6.250717 13.592140
 Ni  0.961705  4.472682 11.760433
 Ni  2.868647  4.328521 13.683540
 Ni  6.384240  4.529707 13.597687
 Ni  6.425262  6.371713 11.742205
 Ni  4.646687  4.450518 11.772893
 Ni  0.966186  9.954655 13.594538
 Ni  2.794005  8.058768 13.522859
 Ni  2.711427  9.918133 11.722444
 Ni  4.597833  9.924840 13.548245
 Ni  6.418426  8.176959 13.593616
 Ni  6.403472  9.934877 11.788936
 Ni  4.524757  8.144703 11.758753
 Ni  0.952518 13.612660 13.603629
 Ni  2.763137 11.738088 13.647923
 Ni  0.983674 11.815850 11.834345
 Ni  4.656184 13.578015 13.611624
 Ni  6.409324 11.738483 13.584576
 Ni  6.427024 13.533737 11.806634
 Ni  4.565437 11.758806 11.852715
 Ni  0.926772  2.718990  2.759369
 Ni  2.814926  0.790375  2.724293
 Ni  2.782765  1.103746 13.584116
 Ni  0.932925  0.916458  0.941961
 Ni  4.645329  2.659734  2.760277
 Ni  6.441546  0.933333  2.760135
 Ni  6.451672  2.706269  0.974243
 Ni  4.666571  0.901688  0.936100
 Ni  0.983955  8.167743  4.545149
 Ni  2.818446  4.541249  2.739001
 Ni  2.887336  6.312307  0.895148
 Ni  0.991999  4.503208  0.940293
 Ni  6.388637  2.707305  4.587870
 Ni  6.387313  6.334211  0.984438
 Ni  6.408361  4.519402  2.818483
 Ni  0.992012  9.946676  2.689954
 Ni  2.777338  8.182182  2.724961
 Ni  0.994935  8.091142  0.880066
 Ni  6.421515  8.158263  2.761674
 Ni  6.415504  9.947907  0.908968
 Ni  4.637181  8.188927  0.939700
 Ni  0.939111 13.562911  2.696250
 Ni  4.632742 11.731866  0.905743
 Ni  6.445305 11.736991  2.744577
 Ni  6.467831 13.546403  0.905149
 %ENDBLOCK POSITIONS_ABS
 
%block positions_abs_product 
     ang 
Al  8.216793  0.899758  4.574685
 Al 11.838343  0.895480  4.552714
 Al  8.252281  4.530748  4.569524
 Al 11.854134  4.530416  4.558964
 Al  8.292807  8.139772  4.490302
 Al 11.879957  8.134901  4.529146
 Al  8.232474 11.742717  4.564479
 Al 11.851411 11.755302  4.534072
 Al  8.218665  0.879385  8.149829
 Al 11.837951  0.915391  8.139966
 Al  8.218144  4.548828  8.136450
 Al 11.861122  4.519910  8.154643
 Al  8.382388  8.175359  8.167437
 Al 11.874584  8.124326  8.165001
 Al  8.290669 11.714551  8.088288
 Al 11.871374 11.756058  8.140354
 Al  8.242125  0.865386 11.755872
 Al 11.826297  0.922896 11.768821
 Al  8.229866  4.538441 11.776893
 Al 11.828100  4.507593 11.768863
 Al  8.302528  8.152926 11.846993
 Al 11.897225  8.118967 11.789946
 Al  8.343036 11.733503 11.871176
 Al 11.838818 11.755690 11.786403
 Al  8.246581  0.894566  0.952434
 Al 11.809700  0.917985  0.944775
 Al  8.206278  4.521576  0.953627
 Al 11.836175  4.517155  0.938135
 Al  8.226744  8.133365  0.942379
 Al 11.841343  8.117726  0.950223
 Al  8.232780 11.747568  0.930906
 Al 11.869841 11.748639  0.951542
 Al  4.767991 13.553886  2.734931
 Al  0.824751 11.773918  0.920650
 Al  2.799206 13.656552  0.817895
 Al  4.664490  9.972049  2.816672
 Al  2.780840  9.856321  0.841759
 Al  4.601320  6.429899  2.849900
 Al  0.990954  6.321911  2.721557
 Al  2.849148 13.595367 11.890664
 Al  0.863495  8.103082 11.910805
 Al  4.716850  6.396588 13.590732
 Al  2.787414  6.082677 11.770658
 Al  4.786880  2.609128 13.518428
 Al  4.700214  4.472283  1.044567
 Al  2.729733  2.714324 11.667897
 Al  0.802787  2.703736 13.600494
 Al  4.553507 11.741776  8.156648
 Al  6.366812 11.736441 10.075215
 Al  2.650853 11.670692  6.325496
 Al  0.908894 13.568634  9.904076
 Al  6.264861  8.178123  9.982202
 Al  0.892742 10.082873  9.919218
 Al  2.866188  8.131080  9.885134
 Al  4.747378  4.755652  8.072973
 Al  4.816043  2.640182  9.959745
 Al  2.681069  2.576363  8.137897
 Al  2.704811 13.616771  4.526993
 Al  6.239298  8.078143  6.342932
 Al  2.776905  8.125092  6.336532
 Al  2.800155  2.622616  4.466126
 Al  2.740733  2.603847  1.113957
 Al  2.713525  4.667437  6.266941
 Ni  8.213291  2.708088  6.345585
 Ni 10.033304  0.898367  6.356821
 Ni 10.044699  2.715845  4.570277
 Ni 11.856153  2.716416  6.354397
 Ni 13.654114  0.910593  6.333070
 Ni 13.632258  2.724332  4.550223
 Ni  8.233183  6.400209  6.347656
 Ni 10.045512  4.533101  6.360290
 Ni 10.063718  6.331788  4.551996
 Ni 11.868631  6.324550  6.364721
 Ni 13.679089  4.522195  6.353661
 Ni 13.665650  6.332983  4.552667
 Ni  8.229364  9.879836  6.357165
 Ni 10.088305  8.141749  6.334865
 Ni 10.042799  9.943943  4.539580
 Ni 11.865773  9.949598  6.325003
 Ni 13.652737  8.132551  6.348786
 Ni 13.669618  9.935951  4.523431
 Ni  8.217525 13.552060  6.371444
 Ni 10.061769 11.742052  6.334872
 Ni 10.021455 13.556101  4.549742
 Ni 11.846117 13.561059  6.327569
 Ni 13.676156 11.756691  6.316499
 Ni 13.661243 13.558945  4.536935
 Ni  6.519836  2.692794 11.757500
 Ni 10.023606  0.906181  9.947498
 Ni 10.023411  2.719182  8.140624
 Ni 11.825506  2.723027  9.935523
 Ni 13.641453  0.927536  9.946274
 Ni 13.664468  2.710338  8.136495
 Ni  8.259978  6.414111  9.984393
 Ni 10.017292  4.524161  9.954999
 Ni 10.057210  6.330194  8.161300
 Ni 11.857990  6.306717  9.969247
 Ni 13.668217  4.516161  9.957690
 Ni 13.681964  6.325555  8.169857
 Ni  8.237326  9.953322  9.984405
 Ni 10.093055  8.147781  9.994841
 Ni 10.091356  9.951985  8.160440
 Ni 11.888177  9.929081  9.974239
 Ni 13.701597  8.115847  9.973338
 Ni 13.646490  9.948533  8.123514
 Ni  8.239332 13.461701  9.963707
 Ni 10.082925 11.734558  9.965197
 Ni 10.049193 13.547869  8.155559
 Ni 11.843506 13.593681  9.958725
 Ni 13.601758 11.790075  9.982947
 Ni 13.615349 13.567056  8.110249
 Ni  8.223468  2.704199 13.605930
 Ni 10.029227  0.909217 13.587970
 Ni 10.009411  2.713349 11.765417
 Ni 11.840783  2.716627 13.587272
 Ni 13.616116  0.876874 13.586022
 Ni 13.612274  2.707158 11.729470
 Ni  8.203342  6.329367 13.595503
 Ni 10.016784  4.516574 13.593108
 Ni 10.046807  6.324842 11.786629
 Ni 11.829839  6.312412 13.591747
 Ni 13.634138  4.539951 13.589741
 Ni 13.657304  6.278867 11.784843
 Ni  8.248228  9.946256 13.602355
 Ni 10.056897  8.124094 13.613375
 Ni 10.077476  9.931029 11.790425
 Ni 11.853688  9.932747 13.603929
 Ni 13.633386  8.103618 13.642476
 Ni 13.662184  9.963171 11.802295
 Ni  8.256775 13.542338 13.585273
 Ni 10.078959 11.746209 13.624911
 Ni 10.055921 13.563858 11.768723
 Ni 11.824125 13.566797 13.593546
 Ni 13.626847 11.774166 13.564502
 Ni 13.625185 13.578111 11.788556
 Ni  8.233292  2.719490  2.787245
 Ni 10.022358  0.903392  2.763983
 Ni 10.024739  2.720484  0.947134
 Ni 11.820445  2.707734  2.767216
 Ni 13.639337  0.911067  2.751041
 Ni 13.607039  2.713692  0.978892
 Ni  8.226152  6.315460  2.761914
 Ni 10.040946  4.525051  2.755942
 Ni 10.022996  6.315282  0.940629
 Ni 11.859722  6.322005  2.738157
 Ni 13.642518  4.508601  2.742153
 Ni 13.652193  6.301061  0.917236
 Ni  8.226742  9.948964  2.737302
 Ni 10.052209  8.128622  2.729220
 Ni 10.045629  9.939963  0.943248
 Ni 11.842420  9.941880  2.743273
 Ni 13.672919  8.145831  2.710513
 Ni 13.639129  9.914077  0.927871
 Ni  8.211529 13.557382  2.757920
 Ni 10.032619 11.751284  2.742287
 Ni 10.034998 13.559196  0.948758
 Ni 11.835412 13.567814  2.754081
 Ni 13.635741 11.744872  2.758058
 Ni 13.597789 13.603118  0.938169
 Ni  1.000061  2.722313  6.315333
 Ni  2.792755  0.886738  6.337358
 Ni  0.945518  0.920532  4.530909
 Ni  4.522107  2.808530  6.414728
 Ni  6.364799  0.892853  6.373982
 Ni  4.594335  4.513783  4.582790
 Ni  4.635076  0.869355  4.576077
 Ni  0.960881  4.501289  4.527883
 Ni  0.953850  6.357390  6.342329
 Ni  4.545701  8.126932  8.126549
 Ni  6.417717  4.581796  6.305558
 Ni  6.421038  6.359215  4.561495
 Ni  2.758185  6.365677  4.517699
 Ni  0.940623  9.908110  6.348566
 Ni  4.552000  8.173400  4.550939
 Ni  2.755473  9.952948  4.502790
 Ni  4.574565  9.975089  6.342653
 Ni  6.500172  6.452314  8.181268
 Ni  6.424600  9.927782  4.590169
 Ni  0.968733 13.571757  6.325874
 Ni  4.570871 11.789224  4.563213
 Ni  0.988852 11.749244  4.488933
 Ni  4.572765 13.518868  6.351048
 Ni  6.401860 11.718273  6.340978
 Ni  6.416804 13.539237  4.608007
 Ni  2.786300 11.794335  2.662449
 Ni  0.948129  2.690995  9.933157
 Ni  2.806913  0.870464  9.970428
 Ni  0.938412  0.874038  8.120158
 Ni  6.449868  0.811204  9.946913
 Ni  6.395899  2.725669  8.100347
 Ni  4.595888  0.878059  8.143894
 Ni  1.038494  6.331816 10.003059
 Ni  2.867370  4.399476  9.844101
 Ni  2.766583  6.291723  8.140618
 Ni  0.994812  4.511101  8.148224
 Ni  4.592293  6.317970  9.977246
 Ni  8.209434  2.712255  9.918278
 Ni  6.438509  4.578417  9.965887
 Ni  0.930972 11.784725  8.125279
 Ni  0.975321  8.132612  8.179978
 Ni  4.558812 10.005974  9.993971
 Ni  6.394476  9.933894  8.162532
 Ni  2.754399  9.958881  8.163604
 Ni  2.749306 11.818885 10.016597
 Ni  2.781910 13.556386  8.118483
 Ni  4.612401 13.555629  9.953088
 Ni  6.399574 13.478295  8.165102
 Ni  0.952458  0.897905 11.759943
 Ni  6.465929  0.844892 13.592853
 Ni  4.652995  0.897386 11.764854
 Ni  1.017400  6.239976 13.601648
 Ni  0.956258  4.459849 11.763598
 Ni  2.866274  4.314470 13.680950
 Ni  6.379717  4.518897 13.596995
 Ni  6.431849  6.371589 11.753818
 Ni  4.653374  4.474777 11.757542
 Ni  0.956382  9.959344 13.603200
 Ni  2.779145  8.055003 13.538183
 Ni  2.694601  9.913064 11.734274
 Ni  4.591354  9.930823 13.556891
 Ni  6.418409  8.174374 13.603937
 Ni  6.405954  9.930609 11.802131
 Ni  4.525398  8.141569 11.804116
 Ni  0.948358 13.612744 13.600387
 Ni  2.755244 11.738584 13.650214
 Ni  0.976283 11.816708 11.834372
 Ni  4.645712 13.572160 13.601238
 Ni  6.398372 11.738932 13.580652
 Ni  6.415404 13.520885 11.789808
 Ni  4.555095 11.737913 11.832249
 Ni  0.930243  2.708238  2.765248
 Ni  2.817267  0.790500  2.737160
 Ni  2.782610  1.091856 13.574259
 Ni  0.934643  0.911411  0.943302
 Ni  4.645987  2.657408  2.768388
 Ni  6.436740  0.927565  2.766699
 Ni  6.446003  2.693360  0.967238
 Ni  4.662142  0.898343  0.935823
 Ni  0.970845  8.157136  4.523940
 Ni  2.825002  4.525185  2.739223
 Ni  2.883164  6.296471  0.891518
 Ni  0.992399  4.487083  0.943063
 Ni  6.382362  2.716745  4.594634
 Ni  6.386051  6.324388  0.978882
 Ni  6.404156  4.504429  2.807594
 Ni  0.990898  9.947348  2.688536
 Ni  2.769991  8.173088  2.713572
 Ni  0.988104  8.087724  0.883304
 Ni  6.426659  8.150495  2.746289
 Ni  6.408057  9.948561  0.908840
 Ni  4.629589  8.187336  0.941994
 Ni  0.941912 13.566031  2.705306
 Ni  4.622945 11.735819  0.907204
 Ni  6.435443 11.732567  2.747197
 Ni  6.457012 13.543611  0.903173
%endblock positions_abs_product 
%block positions_abs_intermediate 
     ang 
Al  8.221625  0.901751  4.574572
 Al 11.839811  0.896010  4.552249
 Al  8.248932  4.534777  4.575455
 Al 11.853601  4.536638  4.561167
 Al  8.284223  8.145478  4.501989
 Al 11.879718  8.138350  4.534211
 Al  8.234708 11.744958  4.566184
 Al 11.852800 11.754234  4.536565
 Al  8.224424  0.879639  8.150397
 Al 11.838547  0.918019  8.143395
 Al  8.211883  4.547972  8.136437
 Al 11.861980  4.523799  8.155392
 Al  8.367266  8.176271  8.173177
 Al 11.872586  8.127843  8.167552
 Al  8.292792 11.723137  8.090679
 Al 11.871620 11.755480  8.146097
 Al  8.247736  0.868208 11.761384
 Al 11.827244  0.925830 11.773013
 Al  8.230808  4.540644 11.778672
 Al 11.825763  4.514749 11.768738
 Al  8.289815  8.153946 11.833472
 Al 11.896660  8.120749 11.786053
 Al  8.344893 11.735399 11.874193
 Al 11.837165 11.752550 11.786467
 Al  8.252183  0.897724  0.955763
 Al 11.809586  0.919990  0.944726
 Al  8.206750  4.528660  0.957475
 Al 11.834990  4.526715  0.937923
 Al  8.225612  8.135451  0.945841
 Al 11.839533  8.119525  0.949391
 Al  8.238183 11.746891  0.931654
 Al 11.871643 11.744958  0.950146
 Al  4.768898 13.555668  2.730241
 Al  0.825102 11.771725  0.917867
 Al  2.800001 13.655828  0.817013
 Al  4.664998  9.974662  2.816228
 Al  2.783884  9.854146  0.840170
 Al  4.601343  6.437474  2.857404
 Al  0.989871  6.328868  2.722843
 Al  2.850618 13.602449 11.898592
 Al  0.879328  8.105480 11.895281
 Al  4.716480  6.399334 13.586082
 Al  2.792088  6.094982 11.756292
 Al  4.789650  2.612217 13.524348
 Al  4.701862  4.480104  1.048231
 Al  2.727441  2.714580 11.674932
 Al  0.801129  2.709641 13.602413
 Al  4.555502 11.756559  8.159527
 Al  6.370222 11.754607 10.079467
 Al  2.648500 11.687207  6.327329
 Al  0.907721 13.573623  9.910010
 Al  6.224440  8.176926  9.941901
 Al  0.909567 10.075717  9.917038
 Al  2.952536  8.132473  9.797465
 Al  4.742131  4.706601  8.101846
 Al  4.814569  2.623617  9.971778
 Al  2.676782  2.568896  8.138923
 Al  2.700685 13.618813  4.519451
 Al  6.220574  8.134093  6.387901
 Al  2.801633  8.141654  6.380965
 Al  2.795763  2.619398  4.459107
 Al  2.740418  2.611295  1.114995
 Al  2.700336  4.650705  6.269323
 Ni  8.214853  2.707154  6.346867
 Ni 10.037948  0.900755  6.358269
 Ni 10.046962  2.719071  4.572143
 Ni 11.855948  2.719822  6.354845
 Ni 13.651351  0.911958  6.332651
 Ni 13.630738  2.728564  4.547973
 Ni  8.230947  6.403162  6.355468
 Ni 10.044876  4.534902  6.364301
 Ni 10.061778  6.336535  4.557450
 Ni 11.868582  6.329785  6.367941
 Ni 13.677841  4.524884  6.354387
 Ni 13.666822  6.339895  4.555641
 Ni  8.226966  9.887696  6.364183
 Ni 10.082988  8.144756  6.341916
 Ni 10.042470  9.945509  4.544893
 Ni 11.865713  9.950900  6.330819
 Ni 13.656062  8.138102  6.355266
 Ni 13.671599  9.936053  4.528004
 Ni  8.223154 13.556300  6.370402
 Ni 10.063783 11.744378  6.338742
 Ni 10.025831 13.556903  4.550617
 Ni 11.846791 13.561054  6.328693
 Ni 13.677627 11.757656  6.320569
 Ni 13.662140 13.558430  4.536150
 Ni  6.525022  2.691341 11.763249
 Ni 10.027009  0.908018  9.951002
 Ni 10.025242  2.721013  8.142034
 Ni 11.824221  2.727992  9.938512
 Ni 13.638623  0.929086  9.952007
 Ni 13.661022  2.710249  8.139079
 Ni  8.242968  6.412141  9.971061
 Ni 10.014445  4.527593  9.953628
 Ni 10.054539  6.332747  8.163107
 Ni 11.855782  6.311499  9.969787
 Ni 13.668305  4.519872  9.959026
 Ni 13.682786  6.331086  8.172679
 Ni  8.229820  9.959411  9.984724
 Ni 10.084165  8.148369  9.992986
 Ni 10.085726  9.952612  8.164073
 Ni 11.887195  9.927857  9.975460
 Ni 13.707536  8.118754  9.971781
 Ni 13.651262  9.950398  8.129876
 Ni  8.244241 13.465633  9.967850
 Ni 10.081229 11.734273  9.967285
 Ni 10.053602 13.550769  8.159086
 Ni 11.845023 13.592236  9.964580
 Ni 13.607313 11.786782  9.987022
 Ni 13.612169 13.568727  8.114105
 Ni  8.226298  2.708730 13.611222
 Ni 10.032144  0.911900 13.591228
 Ni 10.010578  2.717722 11.768719
 Ni 11.841641  2.723325 13.589237
 Ni 13.616023  0.879723 13.587961
 Ni 13.612126  2.713454 11.731879
 Ni  8.200578  6.334590 13.594479
 Ni 10.015846  4.523044 13.594550
 Ni 10.038071  6.330042 11.781886
 Ni 11.826891  6.319540 13.587325
 Ni 13.634177  4.548565 13.588584
 Ni 13.662443  6.286272 11.781873
 Ni  8.248470  9.944456 13.601169
 Ni 10.050861  8.126070 13.609021
 Ni 10.072859  9.929206 11.788869
 Ni 11.853815  9.929836 13.600147
 Ni 13.639481  8.104564 13.635092
 Ni 13.668086  9.961306 11.799676
 Ni  8.261061 13.544510 13.589633
 Ni 10.080238 11.744346 13.625908
 Ni 10.058280 13.563929 11.772165
 Ni 11.825118 13.565388 13.594520
 Ni 13.629180 11.772964 13.561633
 Ni 13.627324 13.577455 11.792365
 Ni  8.236230  2.723414  2.788578
 Ni 10.025909  0.904895  2.766343
 Ni 10.027142  2.726203  0.949797
 Ni 11.819692  2.712824  2.767273
 Ni 13.638205  0.913086  2.748776
 Ni 13.606022  2.720252  0.979347
 Ni  8.224732  6.322127  2.769694
 Ni 10.040462  4.531032  2.759915
 Ni 10.021092  6.321525  0.942447
 Ni 11.859542  6.328311  2.740990
 Ni 13.641108  4.515205  2.741393
 Ni 13.652940  6.307861  0.915115
 Ni  8.228383  9.950326  2.739871
 Ni 10.049952  8.131630  2.736249
 Ni 10.046436  9.938567  0.944023
 Ni 11.842488  9.941464  2.744785
 Ni 13.674832  8.149887  2.713660
 Ni 13.641649  9.912615  0.924685
 Ni  8.216264 13.558456  2.758656
 Ni 10.035303 11.751299  2.745105
 Ni 10.038406 13.558669  0.950598
 Ni 11.838190 13.566894  2.753037
 Ni 13.635472 11.743007  2.757315
 Ni 13.598051 13.602547  0.936272
 Ni  0.994718  2.719954  6.313990
 Ni  2.787546  0.884019  6.333625
 Ni  0.942112  0.922716  4.525405
 Ni  4.519243  2.786935  6.408514
 Ni  6.367433  0.891885  6.371759
 Ni  4.587442  4.498557  4.570286
 Ni  4.634430  0.867973  4.570670
 Ni  0.957693  4.505328  4.527508
 Ni  0.949811  6.360406  6.348172
 Ni  4.568613  7.216399  7.215688
 Ni  6.415144  4.564068  6.308193
 Ni  6.417026  6.371356  4.576312
 Ni  2.757417  6.370852  4.528681
 Ni  0.947582  9.913768  6.356171
 Ni  4.548566  8.184876  4.568589
 Ni  2.756669  9.960587  4.509095
 Ni  4.569188 10.013520  6.339610
 Ni  6.472775  6.441072  8.166050
 Ni  6.422063  9.937588  4.591466
 Ni  0.966587 13.574911  6.325415
 Ni  4.567600 11.804991  4.549985
 Ni  0.988185 11.748901  4.488383
 Ni  4.571664 13.523371  6.348564
 Ni  6.404101 11.729797  6.338243
 Ni  6.420614 13.544017  4.603695
 Ni  2.782937 11.791243  2.656877
 Ni  0.945705  2.688886  9.937168
 Ni  2.806249  0.873923  9.975216
 Ni  0.933297  0.872917  8.122716
 Ni  6.456654  0.811192  9.950666
 Ni  6.394405  2.715267  8.105025
 Ni  4.596232  0.876044  8.143343
 Ni  1.047147  6.335576  9.992572
 Ni  2.863091  4.388905  9.848086
 Ni  2.770012  6.276846  8.143931
 Ni  0.987281  4.504211  8.149584
 Ni  4.597555  6.289050  9.989595
 Ni  8.213960  2.710609  9.920786
 Ni  6.439988  4.565539  9.973085
 Ni  0.926408 11.795190  8.132217
 Ni  0.992742  8.136855  8.183797
 Ni  4.561041 10.033505  9.999414
 Ni  6.391833  9.962229  8.171914
 Ni  2.760899  9.990441  8.166463
 Ni  2.751953 11.828935 10.023011
 Ni  2.780223 13.563717  8.122137
 Ni  4.613794 13.564093  9.958251
 Ni  6.403200 13.485619  8.164558
 Ni  0.951210  0.899706 11.765397
 Ni  6.471070  0.849174 13.599729
 Ni  4.657001  0.896636 11.773146
 Ni  1.023065  6.245347 13.596894
 Ni  0.958981  4.466266 11.762016
 Ni  2.867461  4.321495 13.682245
 Ni  6.381978  4.524302 13.597341
 Ni  6.428556  6.371651 11.748011
 Ni  4.650030  4.462648 11.765218
 Ni  0.961284  9.957000 13.598869
 Ni  2.786575  8.056885 13.530521
 Ni  2.703014  9.915598 11.728359
 Ni  4.594594  9.927831 13.552568
 Ni  6.418417  8.175666 13.598777
 Ni  6.404713  9.932743 11.795534
 Ni  4.525078  8.143136 11.781434
 Ni  0.950438 13.612702 13.602008
 Ni  2.759191 11.738336 13.649069
 Ni  0.979978 11.816279 11.834358
 Ni  4.650948 13.575088 13.606431
 Ni  6.403848 11.738707 13.582614
 Ni  6.421214 13.527311 11.798221
 Ni  4.560266 11.748360 11.842482
 Ni  0.928508  2.713614  2.762309
 Ni  2.816097  0.790438  2.730726
 Ni  2.782687  1.097801 13.579187
 Ni  0.933784  0.913934  0.942631
 Ni  4.645658  2.658571  2.764333
 Ni  6.439143  0.930449  2.763417
 Ni  6.448838  2.699814  0.970740
 Ni  4.664356  0.900016  0.935962
 Ni  0.977400  8.162439  4.534544
 Ni  2.821724  4.533217  2.739112
 Ni  2.885250  6.304389  0.893333
 Ni  0.992199  4.495146  0.941678
 Ni  6.385499  2.712025  4.591252
 Ni  6.386682  6.329299  0.981660
 Ni  6.406258  4.511916  2.813038
 Ni  0.991455  9.947012  2.689245
 Ni  2.773664  8.177635  2.719267
 Ni  0.991519  8.089433  0.881685
 Ni  6.424087  8.154379  2.753981
 Ni  6.411780  9.948234  0.908904
 Ni  4.633385  8.188131  0.940847
 Ni  0.940511 13.564471  2.700778
 Ni  4.627844 11.733843  0.906474
 Ni  6.440374 11.734779  2.745887
 Ni  6.462421 13.545007  0.904161
%endblock positions_abs_intermediate 
     kpoint_mp_grid 1 1 1 
     fix_com : false