#######################################################
#CASTEP cell file: /home/u2093113/Documents/kART/CASTEP/castep.cell
#Created using the Atomic Simulation Environment (ASE)#
#######################################################

%BLOCK LATTICE_CART
14.464828  0.000000  0.000000
 0.000000 14.464828  0.000000
 0.000000  0.000000 14.464828
%ENDBLOCK LATTICE_CART

%BLOCK POSITIONS_ABS
Al  8.227896  4.458829  8.142256
Al 11.838086  4.454115  8.124437
Al  8.214787  8.095785  8.119821
Al 11.852103  8.095743  8.136946
Al  8.302485 11.714070  8.041141
Al 11.871366 11.710438  8.102691
Al  8.226590  0.845659  8.126440
Al 11.850988  0.853664  8.107061
Al  8.214732  4.440999 11.724335
Al 11.832863  4.474176 11.717170
Al  8.214443  8.111076 11.720099
Al 11.852635  8.085393 11.719744
Al  8.368562 11.737641 11.745824
Al 11.864942 11.699082 11.736202
Al  8.277441  0.820714 11.661482
Al 11.862963  0.856510 11.718377
Al  8.242650  4.436875  0.871232
Al 11.827730  4.482278  0.875944
Al  8.245982  8.100189  0.873290
Al 11.826886  8.075668  0.870862
Al  8.300225 11.716463  0.948635
Al 11.893383 11.693626  0.887636
Al  8.336518  0.840031  0.986764
Al 11.832532  0.858086  0.889008
Al  8.246132  4.474068  4.522797
Al 11.810491  4.474548  4.513636
Al  8.253025  8.077958  4.520349
Al 11.836440  8.089945  4.504017
Al  8.241095 11.707259  4.505221
Al 11.841050 11.687980  4.518189
Al  8.233310  0.852964  4.493064
Al 11.872102  0.855120  4.519292
Al  4.766501  2.664455  6.283296
Al  0.828828  0.871092  4.484771
Al  2.803562  2.763173  4.380960
Al  4.668549 13.527434  6.363000
Al  2.782817 13.408858  4.401763
Al  4.725718  8.081139  8.097075
Al  0.967321  9.887372  6.312127
Al  2.858136  2.718457  1.020785
Al  0.862485 11.672215  1.012465
Al  4.678377  9.777529  2.848124
Al  2.797119  9.649521  0.889819
Al  4.784009  6.308984  2.716147
Al  4.606286  9.926732  6.166070
Al  2.728168  6.286340  0.793312
Al  0.796950  6.276469  2.717350
Al  4.552314  0.846134 11.736321
Al  6.359769  0.849079 13.661884
Al  2.655825  0.778910  9.886763
Al  0.918354  2.668334 13.486907
Al  6.253689 11.730369 13.555979
Al  0.906493 13.651863 13.494545
Al  2.880838 11.698827 13.466359
Al  4.733174  8.230542 11.713472
Al  4.811013  6.182558 13.560185
Al  2.670902  6.128232 11.720617
Al  2.697801  2.727008  8.074506
Al  6.276545 11.723431  9.896689
Al  2.766331 11.712999  9.900853
Al  2.725504  6.133022  8.032922
Al  2.822548  6.308402  4.690049
Al  2.613683  8.210567  9.898025
Ni  8.217596  6.262879  9.926639
Ni 10.035898  4.458782  9.931933
Ni 10.041238  6.280725  8.142367
Ni 11.849863  6.279236  9.924916
Ni 13.643964  4.465743  9.907759
Ni 13.628352  6.288171  8.115323
Ni  8.227807  9.975842  9.907687
Ni 10.029948  8.096007  9.929397
Ni 10.062398  9.895525  8.124087
Ni 11.860999  9.893867  9.939683
Ni 13.671951  8.086953  9.929379
Ni 13.650958  9.908779  8.127301
Ni  8.224767 13.447756  9.924440
Ni 10.079649 11.710185  9.909281
Ni 10.040212 13.518731  8.108518
Ni 11.855125 13.524614  9.902349
Ni 13.643748 11.711899  9.922883
Ni 13.668138 13.507253  8.095518
Ni  8.209747  2.655117  9.938082
Ni 10.051066  0.845509  9.908484
Ni 10.023550  2.652424  8.119668
Ni 11.840921  2.653663  9.902598
Ni 13.679701  0.858892  9.894042
Ni 13.659423  2.651030  8.106156
Ni  6.516003  6.259570  0.884781
Ni 10.018535  4.469208 13.521428
Ni 10.022520  6.281173 11.718468
Ni 11.823225  6.283651 13.508934
Ni 13.641636  4.484823 13.524805
Ni 13.654988  6.268700 11.714814
Ni  8.229789  9.979654 13.548200
Ni 10.018244  8.089794 13.523431
Ni 10.046025  9.896859 11.732681
Ni 11.849291  9.880028 13.533318
Ni 13.650645  8.082390 13.529083
Ni 13.675122  9.902447 11.744299
Ni  8.223176 13.522800 13.562148
Ni 10.079984 11.716485 13.561221
Ni 10.075374 13.520644 11.734135
Ni 11.880473 13.500120 13.544479
Ni 13.700928 11.693196 13.543132
Ni 13.649765 13.521784 11.701661
Ni  8.229950  2.564368 13.543510
Ni 10.069826  0.835932 13.539016
Ni 10.040379  2.647497 11.731594
Ni 11.841397  2.688678 13.534779
Ni 13.608525  0.889438 13.557007
Ni 13.616440  2.659990 11.687923
Ni  8.244399  6.264385  2.714492
Ni 10.038378  4.470646  2.694944
Ni 10.016478  6.274811  0.871188
Ni 11.843718  6.278503  2.689776
Ni 13.619296  4.442821  2.695357
Ni 13.609246  6.269784  0.837593
Ni  8.241100  9.903229  2.684333
Ni 10.030817  8.081515  2.690184
Ni 10.048770  9.896052  0.877542
Ni 11.825042  9.887035  2.689596
Ni 13.617931  8.105819  2.688495
Ni 13.645645  9.855392  0.879904
Ni  8.243404 13.503776  2.707922
Ni 10.065549 11.701454  2.712580
Ni 10.069591 13.501896  0.894778
Ni 11.852957 13.506454  2.704123
Ni 13.624076 11.676257  2.739369
Ni 13.663620 13.534958  0.905103
Ni  8.251883  2.661110  2.696091
Ni 10.072492  0.850627  2.730161
Ni 10.051289  2.663463  0.877868
Ni 11.824827  2.663590  2.698060
Ni 13.632963  0.879313  2.666681
Ni 13.633365  2.676265  0.899092
Ni  8.246788  6.283737  6.346762
Ni 10.028500  4.463563  6.335550
Ni 10.044601  6.280254  4.516575
Ni 11.817722  6.268130  6.340435
Ni 13.639131  4.475752  6.314745
Ni 13.596134  6.279452  4.548933
Ni  8.239840  9.881472  6.331201
Ni 10.051151  8.089926  6.332648
Ni 10.034155  9.888641  4.509250
Ni 11.858219  9.894208  6.309502
Ni 13.625756  8.074368  6.311057
Ni 13.644462  9.871242  4.484957
Ni  8.226005 13.518068  6.291464
Ni 10.058314 11.702072  6.298977
Ni 10.051716 13.512564  4.509761
Ni 11.840880 13.514149  6.311204
Ni 13.666177 11.719205  6.284413
Ni 13.637401 13.483528  4.493626
Ni  8.214826  2.659779  6.322869
Ni 10.032249  0.855001  6.311755
Ni 10.033867  2.662317  4.518559
Ni 11.839274  2.665212  6.322436
Ni 13.638069  0.845552  6.324216
Ni 13.607178  2.706802  4.504499
Ni  0.977253  6.269663  9.899289
Ni  2.787388  4.443511  9.912320
Ni  0.922197  4.470308  8.090173
Ni  4.490092  6.373861  9.933703
Ni  6.357214  4.457277  9.935338
Ni  4.585681  9.864429  9.890625
Ni  4.624043  4.430431  8.128238
Ni  0.944054  8.067793  8.102504
Ni  0.926598  9.943552  9.906463
Ni  4.550302 11.712938 11.699097
Ni  6.444656  8.123603  9.912009
Ni  6.400657  9.940178  8.082067
Ni  2.800043  9.908149  8.084794
Ni  0.944554 13.482023  9.919208
Ni  4.551296 11.703329  8.067494
Ni  2.764853 13.518749  8.055979
Ni  4.566552 13.562320  9.890575
Ni  6.459596 10.010304 11.722536
Ni  6.421937 13.499200  8.130791
Ni  0.972653  2.668267  9.896555
Ni  4.569864  0.898306  8.107113
Ni  0.994841  0.848830  8.052238
Ni  4.568379  2.619921  9.909146
Ni  6.397992  0.821397  9.900453
Ni  6.413147  2.642660  8.163709
Ni  2.784786  0.890468  6.216112
Ni  0.941366  6.249321 13.514381
Ni  2.810216  4.442084 13.556035
Ni  0.932648  4.427296 11.699600
Ni  6.448196  4.377651 13.529585
Ni  6.383817  6.271820 11.676242
Ni  4.592184  4.438217 11.713082
Ni  1.043177  9.908250 13.571397
Ni  2.864875  7.951344 13.432694
Ni  2.765796  9.878666 11.730786
Ni  0.973356  8.076150 11.744002
Ni  4.589287  9.868140 13.571554
Ni  8.206279  6.273659 13.499896
Ni  6.430958  8.133057 13.553185
Ni  0.942297  0.889018 11.702664
Ni  0.971166 11.708500 11.753442
Ni  4.565592 13.564580 13.583944
Ni  6.387139 13.514998 11.744228
Ni  2.763701 13.535571 11.742005
Ni  2.765516  0.925471 13.605458
Ni  2.786940  2.658238 11.696403
Ni  4.614435  2.672455 13.548094
Ni  6.390319  2.584418 11.734594
Ni  0.957658  4.464833  0.880729
Ni  6.448964  4.450914  2.707696
Ni  4.651171  4.501201  0.922413
Ni  0.986673  9.808579  2.687369
Ni  0.935627  8.032762  0.847974
Ni  2.781512  7.904476  2.749988
Ni  6.485241  8.085443  2.697175
Ni  6.417573  9.920667  0.886184
Ni  4.665080  8.044263  0.907116
Ni  0.956803 13.522194  2.706320
Ni  2.779065 11.595572  2.649036
Ni  2.703645 13.466663  0.850511
Ni  4.594833 13.488372  2.655052
Ni  6.404726 11.700605  2.701886
Ni  6.405109 13.485136  0.916263
Ni  4.536351 11.658045  0.950230
Ni  0.958094  2.721620  2.713573
Ni  2.759319  0.838328  2.756154
Ni  0.984743  0.916643  0.946492
Ni  4.652509  2.686683  2.719594
Ni  6.402772  0.842612  2.690113
Ni  6.413030  2.640336  0.914604
Ni  4.561306  0.844779  0.952235
Ni  0.933252  6.285024  6.312871
Ni  2.817074  4.380392  6.265438
Ni  2.799386  4.704049  2.716508
Ni  0.955564  4.505457  4.515395
Ni  4.655107  6.241189  6.361062
Ni  6.440990  4.498998  6.325051
Ni  6.460591  6.284525  4.553043
Ni  4.672701  4.513889  4.505715
Ni  0.968642 11.729333  8.092449
Ni  2.828949  8.095333  6.360724
Ni  2.764380  9.843729  4.469854
Ni  0.969188  8.056183  4.514862
Ni  6.423637  6.249582  8.157442
Ni  6.491792  9.887021  4.514693
Ni  6.399841  8.075369  6.281973
Ni  0.993309 13.509854  6.252468
Ni  2.773325 11.720034  6.272282
Ni  0.973656 11.660307  4.450546
Ni  6.423745 11.702941  6.286946
Ni  6.404068 13.503541  4.462022
Ni  4.628464 11.715062  4.466096
Ni  0.944622  2.668419  6.258729
Ni  4.629974  0.833689  4.472456
Ni  6.438459  0.838916  6.296035
Ni  6.455670  2.661458  4.465662
%ENDBLOCK POSITIONS_ABS

