#######################################################
#CASTEP cell file: /home/u2093113/Documents/kART/CASTEP/castep.cell
#Created using the Atomic Simulation Environment (ASE)#
#######################################################

%BLOCK LATTICE_CART
14.464828  0.000000  0.000000
 0.000000 14.464828  0.000000
 0.000000  0.000000 14.464828
%ENDBLOCK LATTICE_CART

%BLOCK POSITIONS_ABS
Al  8.227704  4.456556  8.141230
Al 11.839800  4.454020  8.123727
Al  8.222986  8.093792  8.125964
Al 11.853796  8.093985  8.135179
Al  8.304653 11.713920  8.043361
Al 11.873357 11.708091  8.102065
Al  8.228672  0.845179  8.128713
Al 11.851080  0.852411  8.107958
Al  8.215778  4.440798 11.723405
Al 11.834085  4.474957 11.717530
Al  8.214705  8.108197 11.717015
Al 11.854983  8.082819 11.720476
Al  8.370908 11.735845 11.745933
Al 11.866617 11.696413 11.737204
Al  8.279933  0.820304 11.661189
Al 11.864486  0.856715 11.718902
Al  8.242732  4.435229  0.870104
Al 11.828782  4.483717  0.876654
Al  8.243975  8.098618  0.875058
Al 11.828177  8.073214  0.872820
Al  8.300490 11.715191  0.947091
Al 11.895549 11.690252  0.888486
Al  8.338442  0.839079  0.984718
Al 11.833299  0.857842  0.889220
Al  8.248900  4.469044  4.525197
Al 11.811028  4.475263  4.513919
Al  8.253768  8.076828  4.519679
Al 11.835878  8.088007  4.504962
Al  8.242077 11.707570  4.505262
Al 11.841674 11.685073  4.517902
Al  8.236773  0.851372  4.493521
Al 11.872847  0.853667  4.517936
Al  4.765702  2.663998  6.287475
Al  0.827290  0.870052  4.485148
Al  2.806359  2.756025  4.382211
Al  4.667441 13.529384  6.366014
Al  2.781572 13.410603  4.403395
Al  4.724237  8.070495  8.091209
Al  0.971038  9.887313  6.313609
Al  2.857706  2.716408  1.019496
Al  0.862110 11.670988  1.012632
Al  4.683778  9.813203  2.822240
Al  2.795628  9.648567  0.885795
Al  4.782662  6.288166  2.713165
Al  4.607171  9.953701  6.194147
Al  2.730729  6.282465  0.796241
Al  0.808150  6.274127  2.725892
Al  4.552580  0.847573 11.735931
Al  6.361339  0.848751 13.659582
Al  2.654186  0.777621  9.890346
Al  0.916942  2.669284 13.486224
Al  6.253812 11.730272 13.553687
Al  0.903874 13.650796 13.493445
Al  2.879280 11.698315 13.464311
Al  4.734158  8.228062 11.710750
Al  4.811276  6.180026 13.558063
Al  2.673577  6.127166 11.717331
Al  2.700318  2.721526  8.080137
Al  6.278416 11.722566  9.898788
Al  2.764967 11.713230  9.903746
Al  2.736400  6.125419  8.020717
Al  2.856370  6.285136  4.720604
Al  2.615877  8.206579  9.894732
Ni  8.214674  6.259147  9.922443
Ni 10.037328  4.458633  9.931453
Ni 10.042046  6.278085  8.140731
Ni 11.852790  6.278674  9.922899
Ni 13.644795  4.466330  9.907642
Ni 13.633498  6.287009  8.112727
Ni  8.229376  9.973887  9.908320
Ni 10.032837  8.093036  9.929421
Ni 10.063498  9.894269  8.123415
Ni 11.862916  9.890738  9.939050
Ni 13.675661  8.084770  9.926482
Ni 13.653295  9.906246  8.126237
Ni  8.227435 13.446556  9.925882
Ni 10.082121 11.707932  9.909905
Ni 10.042248 13.517487  8.109871
Ni 11.856160 13.523308  9.902780
Ni 13.643498 11.708893  9.923613
Ni 13.667341 13.505821  8.096553
Ni  8.211055  2.655670  9.938031
Ni 10.052958  0.845050  9.909439
Ni 10.025060  2.651957  8.119754
Ni 11.841711  2.653676  9.902516
Ni 13.679801  0.858844  9.894740
Ni 13.657622  2.649530  8.107015
Ni  6.514434  6.257564  0.883918
Ni 10.019140  4.469624 13.521384
Ni 10.022710  6.280333 11.716892
Ni 11.823739  6.283960 13.510466
Ni 13.642845  4.486081 13.525227
Ni 13.656596  6.268996 11.714943
Ni  8.231644  9.977685 13.546343
Ni 10.017235  8.087696 13.523953
Ni 10.048909  9.893666 11.732360
Ni 11.851224  9.876012 13.535132
Ni 13.655555  8.079904 13.532496
Ni 13.676209  9.898587 11.744328
Ni  8.225209 13.521749 13.560534
Ni 10.082006 11.714005 13.561223
Ni 10.077991 13.519141 11.734367
Ni 11.882201 13.498419 13.545215
Ni 13.702001 11.690015 13.543705
Ni 13.649248 13.520504 11.701797
Ni  8.232096  2.563956 13.542208
Ni 10.072085  0.834958 13.538468
Ni 10.042352  2.647680 11.731572
Ni 11.842649  2.689832 13.535510
Ni 13.608169  0.890062 13.557695
Ni 13.616857  2.660891 11.687452
Ni  8.238081  6.262747  2.717709
Ni 10.037377  4.470935  2.694928
Ni 10.013358  6.273932  0.873658
Ni 11.844696  6.278175  2.691567
Ni 13.622146  4.444587  2.696337
Ni 13.613336  6.268840  0.841212
Ni  8.235432  9.900734  2.686018
Ni 10.028801  8.079400  2.691104
Ni 10.047545  9.893780  0.879403
Ni 11.825810  9.883353  2.691082
Ni 13.622709  8.102452  2.692977
Ni 13.649388  9.851456  0.883636
Ni  8.245949 13.504395  2.706303
Ni 10.064663 11.698282  2.711726
Ni 10.071221 13.499702  0.893842
Ni 11.854060 13.503145  2.703938
Ni 13.626456 11.672038  2.740721
Ni 13.664224 13.534344  0.905666
Ni  8.253083  2.658188  2.695886
Ni 10.074686  0.849509  2.729138
Ni 10.052342  2.663311  0.877710
Ni 11.825982  2.664561  2.698309
Ni 13.632768  0.878707  2.666636
Ni 13.634285  2.677007  0.900648
Ni  8.238286  6.283320  6.347383
Ni 10.028606  4.464020  6.336425
Ni 10.042692  6.279026  4.517160
Ni 11.818915  6.268009  6.339961
Ni 13.641193  4.476427  6.315102
Ni 13.601817  6.279012  4.551207
Ni  8.237661  9.881753  6.332510
Ni 10.049638  8.088501  6.332048
Ni 10.032622  9.886653  4.509164
Ni 11.859538  9.891730  6.309125
Ni 13.630667  8.071507  6.310077
Ni 13.648130  9.867201  4.486438
Ni  8.228670 13.519256  6.293710
Ni 10.057878 11.699136  6.299589
Ni 10.052738 13.510809  4.509159
Ni 11.839733 13.512150  6.310666
Ni 13.666591 11.718037  6.284198
Ni 13.638705 13.480143  4.493004
Ni  8.211699  2.660526  6.324913
Ni 10.033225  0.855829  6.312325
Ni 10.035261  2.661039  4.519079
Ni 11.840484  2.665458  6.322110
Ni 13.634789  0.841182  6.324560
Ni 13.607328  2.707713  4.504709
Ni  0.980513  6.267846  9.896854
Ni  2.789969  4.441882  9.909318
Ni  0.923432  4.466294  8.091523
Ni  4.490854  6.369784  9.917858
Ni  6.354469  4.457702  9.931721
Ni  4.587109  9.862318  9.890180
Ni  4.626286  4.438377  8.119562
Ni  0.951434  8.065911  8.097848
Ni  0.927543  9.940783  9.906764
Ni  4.549955 11.712818 11.698172
Ni  6.443832  8.120042  9.907055
Ni  6.401227  9.938629  8.084945
Ni  2.799072  9.909835  8.089676
Ni  0.942643 13.481135  9.921076
Ni  4.551132 11.710218  8.076357
Ni  2.762714 13.520401  8.060024
Ni  4.567188 13.563785  9.893852
Ni  6.460409 10.008227 11.721722
Ni  6.423354 13.499887  8.133458
Ni  0.972746  2.668285  9.897691
Ni  4.570326  0.895793  8.109470
Ni  0.992842  0.847746  8.054425
Ni  4.569209  2.617246  9.910053
Ni  6.399775  0.820465  9.901626
Ni  6.412130  2.643176  8.165279
Ni  2.782726  0.890526  6.218640
Ni  0.944860  6.248556 13.515658
Ni  2.810367  4.442215 13.554859
Ni  0.933588  4.428960 11.699280
Ni  6.448711  4.376527 13.527965
Ni  6.381247  6.270627 11.672599
Ni  4.592387  4.437081 11.711682
Ni  1.043930  9.904268 13.571702
Ni  2.866121  7.948519 13.430908
Ni  2.766300  9.875942 11.729609
Ni  0.975116  8.073667 11.742828
Ni  4.588914  9.867628 13.567613
Ni  8.204793  6.272228 13.498447
Ni  6.432517  8.131841 13.550786
Ni  0.940480  0.889036 11.703395
Ni  0.970087 11.705573 11.753208
Ni  4.564590 13.566087 13.581286
Ni  6.388075 13.514289 11.743852
Ni  2.762180 13.535247 11.742848
Ni  2.763514  0.926005 13.602864
Ni  2.785298  2.658622 11.696493
Ni  4.614049  2.671984 13.545879
Ni  6.392065  2.584560 11.734768
Ni  0.959385  4.463700  0.881410
Ni  6.450809  4.443737  2.709127
Ni  4.652208  4.496442  0.920733
Ni  0.992072  9.806695  2.691698
Ni  0.943126  8.028872  0.857883
Ni  2.791939  7.902971  2.752817
Ni  6.471977  8.084864  2.702288
Ni  6.417774  9.920411  0.880452
Ni  4.665559  8.040629  0.895521
Ni  0.957191 13.520940  2.706893
Ni  2.778625 11.598743  2.647698
Ni  2.701466 13.468367  0.847925
Ni  4.594433 13.491027  2.652913
Ni  6.408015 11.707906  2.701512
Ni  6.406224 13.486548  0.913559
Ni  4.535087 11.664688  0.944748
Ni  0.958407  2.720047  2.714811
Ni  2.759633  0.837369  2.755344
Ni  0.983888  0.916914  0.946341
Ni  4.654274  2.682274  2.717960
Ni  6.403641  0.841486  2.689306
Ni  6.414813  2.638131  0.912034
Ni  4.561380  0.845098  0.949089
Ni  0.947957  6.280600  6.312223
Ni  2.807340  4.358607  6.269658
Ni  2.799917  4.691865  2.719772
Ni  0.958725  4.500284  4.518393
Ni  4.649825  7.135800  5.456053
Ni  6.430462  4.509576  6.326245
Ni  6.452311  6.279624  4.565648
Ni  4.675616  4.500763  4.515275
Ni  0.966972 11.729574  8.094511
Ni  2.837700  8.093706  6.370051
Ni  2.777358  9.849844  4.477440
Ni  0.977347  8.053781  4.520412
Ni  6.412939  6.247823  8.143702
Ni  6.485764  9.888523  4.520595
Ni  6.402116  8.069661  6.291358
Ni  0.991922 13.510040  6.254201
Ni  2.770549 11.725525  6.278493
Ni  0.979012 11.654568  4.452325
Ni  6.428263 11.709199  6.290672
Ni  6.408452 13.506833  4.463199
Ni  4.630960 11.731419  4.470798
Ni  0.936222  2.660987  6.262566
Ni  4.631007  0.832408  4.474436
Ni  6.439282  0.837551  6.298710
Ni  6.458561  2.657740  4.468664
%ENDBLOCK POSITIONS_ABS

