#######################################################
#CASTEP cell file: /home/u2093113/Documents/kART/CASTEP/castep.cell
#Created using the Atomic Simulation Environment (ASE)#
#######################################################

%BLOCK LATTICE_CART
14.464828  0.000000  0.000000
 0.000000 14.464828  0.000000
 0.000000  0.000000 14.464828
%ENDBLOCK LATTICE_CART

%BLOCK POSITIONS_ABS
Al  8.227513  4.454282  8.140204
Al 11.841514  4.453926  8.123017
Al  8.231185  8.091798  8.132107
Al 11.855489  8.092227  8.133412
Al  8.306821 11.713770  8.045580
Al 11.875347 11.705743  8.101438
Al  8.230755  0.844698  8.130986
Al 11.851172  0.851158  8.108855
Al  8.216825  4.440598 11.722476
Al 11.835308  4.475739 11.717891
Al  8.214968  8.105318 11.713931
Al 11.857332  8.080244 11.721208
Al  8.373255 11.734050 11.746042
Al 11.868293 11.693744 11.738207
Al  8.282425  0.819893 11.660896
Al 11.866008  0.856921 11.719428
Al  8.242815  4.433584  0.868976
Al 11.829834  4.485155  0.877363
Al  8.241968  8.097047  0.876826
Al 11.829468  8.070760  0.874778
Al  8.300755 11.713919  0.945548
Al 11.897715 11.686877  0.889335
Al  8.340366  0.838126  0.982672
Al 11.834066  0.857598  0.889433
Al  8.251669  4.464021  4.527596
Al 11.811566  4.475979  4.514203
Al  8.254510  8.075698  4.519010
Al 11.835316  8.086070  4.505908
Al  8.243060 11.707881  4.505304
Al 11.842297 11.682165  4.517615
Al  8.240235  0.849780  4.493977
Al 11.873591  0.852213  4.516580
Al  4.764903  2.663541  6.291653
Al  0.825753  0.869011  4.485526
Al  2.809155  2.748877  4.383463
Al  4.666333 13.531333  6.369028
Al  2.780328 13.412348  4.405027
Al  4.722756  8.059852  8.085342
Al  0.974755  9.887255  6.315091
Al  2.857276  2.714360  1.018207
Al  0.861736 11.669761  1.012800
Al  4.689179  9.848878  2.796356
Al  2.794137  9.647614  0.881770
Al  4.781316  6.267347  2.710183
Al  4.608056  9.980669  6.222225
Al  2.733290  6.278590  0.799170
Al  0.819349  6.271785  2.734433
Al  4.552847  0.849012 11.735540
Al  6.362909  0.848423 13.657281
Al  2.652548  0.776332  9.893930
Al  0.915530  2.670233 13.485541
Al  6.253935 11.730174 13.551395
Al  0.901255 13.649728 13.492346
Al  2.877722 11.697804 13.462262
Al  4.735142  8.225582 11.708028
Al  4.811539  6.177495 13.555941
Al  2.676253  6.126099 11.714045
Al  2.702835  2.716045  8.085767
Al  6.280287 11.721702  9.900888
Al  2.763604 11.713461  9.906639
Al  2.747296  6.117815  8.008513
Al  2.890192  6.261870  4.751159
Al  2.618071  8.202592  9.891439
Ni  8.211752  6.255415  9.918246
Ni 10.038757  4.458484  9.930973
Ni 10.042854  6.275445  8.139096
Ni 11.855716  6.278111  9.920882
Ni 13.645626  4.466917  9.907525
Ni 13.638643  6.285847  8.110132
Ni  8.230946  9.971932  9.908953
Ni 10.035726  8.090064  9.929444
Ni 10.064598  9.893013  8.122743
Ni 11.864833  9.887608  9.938418
Ni 13.679371  8.082588  9.923586
Ni 13.655633  9.903712  8.125174
Ni  8.230104 13.445355  9.927324
Ni 10.084594 11.705678  9.910529
Ni 10.044283 13.516244  8.111224
Ni 11.857196 13.522003  9.903210
Ni 13.643249 11.705887  9.924343
Ni 13.666543 13.504388  8.097587
Ni  8.212362  2.656223  9.937980
Ni 10.054850  0.844591  9.910395
Ni 10.026571  2.651490  8.119841
Ni 11.842502  2.653689  9.902433
Ni 13.679900  0.858795  9.895437
Ni 13.655822  2.648031  8.107874
Ni  6.512864  6.255558  0.883054
Ni 10.019746  4.470040 13.521340
Ni 10.022900  6.279493 11.715315
Ni 11.824254  6.284269 13.511997
Ni 13.644053  4.487340 13.525648
Ni 13.658205  6.269292 11.715072
Ni  8.233498  9.975715 13.544486
Ni 10.016226  8.085598 13.524476
Ni 10.051793  9.890473 11.732039
Ni 11.853157  9.871995 13.536947
Ni 13.660464  8.077418 13.535910
Ni 13.677297  9.894728 11.744357
Ni  8.227242 13.520697 13.558919
Ni 10.084027 11.711525 13.561224
Ni 10.080607 13.517638 11.734598
Ni 11.883929 13.496717 13.545951
Ni 13.703074 11.686834 13.544277
Ni 13.648732 13.519225 11.701933
Ni  8.234241  2.563544 13.540905
Ni 10.074343  0.833985 13.537920
Ni 10.044325  2.647863 11.731550
Ni 11.843901  2.690986 13.536240
Ni 13.607813  0.890686 13.558382
Ni 13.617275  2.661792 11.686980
Ni  8.231763  6.261109  2.720926
Ni 10.036376  4.471223  2.694911
Ni 10.010238  6.273052  0.876128
Ni 11.845674  6.277847  2.693357
Ni 13.624995  4.446353  2.697316
Ni 13.617426  6.267895  0.844832
Ni  8.229764  9.898239  2.687703
Ni 10.026785  8.077286  2.692025
Ni 10.046320  9.891507  0.881264
Ni 11.826578  9.879671  2.692567
Ni 13.627487  8.099085  2.697460
Ni 13.653130  9.847521  0.887368
Ni  8.248494 13.505014  2.704685
Ni 10.063777 11.695109  2.710871
Ni 10.072850 13.497509  0.892905
Ni 11.855164 13.499836  2.703754
Ni 13.628835 11.667819  2.742074
Ni 13.664827 13.533729  0.906228
Ni  8.254282  2.655266  2.695681
Ni 10.076881  0.848392  2.728115
Ni 10.053395  2.663158  0.877553
Ni 11.827137  2.665531  2.698558
Ni 13.632573  0.878100  2.666591
Ni 13.635206  2.677748  0.902204
Ni  8.229784  6.282903  6.348005
Ni 10.028712  4.464477  6.337301
Ni 10.040783  6.277799  4.517746
Ni 11.820107  6.267888  6.339487
Ni 13.643255  4.477101  6.315460
Ni 13.607501  6.278572  4.553482
Ni  8.235482  9.882035  6.333819
Ni 10.048126  8.087075  6.331448
Ni 10.031089  9.884665  4.509078
Ni 11.860858  9.889252  6.308748
Ni 13.635578  8.068647  6.309098
Ni 13.651798  9.863160  4.487919
Ni  8.231335 13.520444  6.295955
Ni 10.057442 11.696200  6.300200
Ni 10.053760 13.509055  4.508558
Ni 11.838586 13.510150  6.310128
Ni 13.667005 11.716868  6.283983
Ni 13.640009 13.476759  4.492382
Ni  8.208572  2.661273  6.326958
Ni 10.034200  0.856656  6.312896
Ni 10.036655  2.659761  4.519598
Ni 11.841694  2.665704  6.321785
Ni 13.631509  0.836811  6.324904
Ni 13.607477  2.708624  4.504919
Ni  0.983772  6.266028  9.894419
Ni  2.792549  4.440252  9.906316
Ni  0.924668  4.462280  8.092873
Ni  4.491617  6.365707  9.902013
Ni  6.351724  4.458126  9.928103
Ni  4.588537  9.860206  9.889736
Ni  4.628529  4.446323  8.110885
Ni  0.958814  8.064030  8.093193
Ni  0.928488  9.938015  9.907064
Ni  4.549608 11.712699 11.697247
Ni  6.443009  8.116482  9.902100
Ni  6.401796  9.937080  8.087823
Ni  2.798102  9.911521  8.094559
Ni  0.940732 13.480246  9.922943
Ni  4.550968 11.717108  8.085220
Ni  2.760575 13.522052  8.064069
Ni  4.567823 13.565251  9.897129
Ni  6.461223 10.006150 11.720908
Ni  6.424771 13.500574  8.136125
Ni  0.972839  2.668303  9.898827
Ni  4.570789  0.893281  8.111828
Ni  0.990843  0.846663  8.056612
Ni  4.570038  2.614572  9.910959
Ni  6.401558  0.819534  9.902799
Ni  6.411114  2.643693  8.166849
Ni  2.780666  0.890584  6.221167
Ni  0.948354  6.247791 13.516936
Ni  2.810519  4.442345 13.553682
Ni  0.934528  4.430624 11.698960
Ni  6.449227  4.375403 13.526345
Ni  6.378678  6.269433 11.668956
Ni  4.592589  4.435946 11.710282
Ni  1.044684  9.900287 13.572006
Ni  2.867367  7.945694 13.429122
Ni  2.766803  9.873217 11.728432
Ni  0.976875  8.071184 11.741655
Ni  4.588541  9.867117 13.563672
Ni  8.203307  6.270796 13.496999
Ni  6.434076  8.130624 13.548386
Ni  0.938662  0.889053 11.704127
Ni  0.969008 11.702647 11.752974
Ni  4.563588 13.567595 13.578628
Ni  6.389012 13.513580 11.743476
Ni  2.760659 13.534924 11.743691
Ni  2.761512  0.926539 13.600270
Ni  2.783656  2.659006 11.696584
Ni  4.613664  2.671513 13.543664
Ni  6.393810  2.584703 11.734941
Ni  0.961112  4.462567  0.882090
Ni  6.452654  4.436559  2.710558
Ni  4.653245  4.491683  0.919052
Ni  0.997470  9.804811  2.696027
Ni  0.950626  8.024982  0.867791
Ni  2.802365  7.901466  2.755645
Ni  6.458713  8.084285  2.707402
Ni  6.417975  9.920155  0.874720
Ni  4.666037  8.036995  0.883925
Ni  0.957579 13.519687  2.707465
Ni  2.778185 11.601915  2.646360
Ni  2.699287 13.470070  0.845338
Ni  4.594034 13.493683  2.650774
Ni  6.411303 11.715206  2.701139
Ni  6.407339 13.487960  0.910854
Ni  4.533822 11.671330  0.939267
Ni  0.958719  2.718473  2.716048
Ni  2.759948  0.836411  2.754535
Ni  0.983033  0.917184  0.946189
Ni  4.656039  2.677864  2.716326
Ni  6.404510  0.840361  2.688498
Ni  6.416596  2.635927  0.909463
Ni  4.561454  0.845418  0.945943
Ni  0.962662  6.276176  6.311574
Ni  2.797606  4.336823  6.273879
Ni  2.800448  4.679681  2.723036
Ni  0.961887  4.495111  4.521392
Ni  4.644543  8.030411  4.551043
Ni  6.419933  4.520154  6.327439
Ni  6.444030  6.274723  4.578253
Ni  4.678531  4.487637  4.524834
Ni  0.965302 11.729816  8.096573
Ni  2.846450  8.092079  6.379378
Ni  2.790336  9.855958  4.485027
Ni  0.985506  8.051379  4.525962
Ni  6.402240  6.246063  8.129963
Ni  6.479735  9.890025  4.526498
Ni  6.404390  8.063953  6.300744
Ni  0.990535 13.510227  6.255934
Ni  2.767773 11.731016  6.284704
Ni  0.984368 11.648829  4.454105
Ni  6.432781 11.715457  6.294398
Ni  6.412836 13.510125  4.464377
Ni  4.633455 11.747776  4.475500
Ni  0.927822  2.653556  6.266403
Ni  4.632041  0.831127  4.476417
Ni  6.440106  0.836186  6.301386
Ni  6.461451  2.654022  4.471667
%ENDBLOCK POSITIONS_ABS

