%block lattice_abc 
  14.46482773 14.46482773 14.46482773 #lattice params 
 90.0  90.0  90.0 
     %endblock lattice_abc 
     fix_all_cell : true 
     %BLOCK POSITIONS_ABS 
Al  8.227896  4.458829  8.142256
 Al 11.838086  4.454115  8.124437
 Al  8.214787  8.095785  8.119821
 Al 11.852103  8.095743  8.136946
 Al  8.302485 11.714070  8.041141
 Al 11.871366 11.710438  8.102691
 Al  8.226590  0.845659  8.126440
 Al 11.850988  0.853664  8.107061
 Al  8.214732  4.440999 11.724335
 Al 11.832863  4.474176 11.717170
 Al  8.214443  8.111076 11.720099
 Al 11.852635  8.085393 11.719744
 Al  8.368562 11.737641 11.745824
 Al 11.864942 11.699082 11.736202
 Al  8.277441  0.820714 11.661482
 Al 11.862963  0.856510 11.718377
 Al  8.242650  4.436875  0.871232
 Al 11.827730  4.482278  0.875944
 Al  8.245982  8.100189  0.873290
 Al 11.826886  8.075668  0.870862
 Al  8.300225 11.716463  0.948635
 Al 11.893383 11.693626  0.887636
 Al  8.336518  0.840031  0.986764
 Al 11.832532  0.858086  0.889008
 Al  8.246132  4.474068  4.522797
 Al 11.810491  4.474548  4.513636
 Al  8.253025  8.077958  4.520349
 Al 11.836440  8.089945  4.504017
 Al  8.241095 11.707259  4.505221
 Al 11.841050 11.687980  4.518189
 Al  8.233310  0.852964  4.493064
 Al 11.872102  0.855120  4.519292
 Al  4.766501  2.664455  6.283296
 Al  0.828828  0.871092  4.484771
 Al  2.803562  2.763173  4.380960
 Al  4.668549 13.527434  6.363000
 Al  2.782817 13.408858  4.401763
 Al  4.725718  8.081139  8.097075
 Al  0.967321  9.887372  6.312127
 Al  2.858136  2.718457  1.020785
 Al  0.862485 11.672215  1.012465
 Al  4.678377  9.777529  2.848124
 Al  2.797119  9.649521  0.889819
 Al  4.784009  6.308984  2.716147
 Al  4.606286  9.926732  6.166070
 Al  2.728168  6.286340  0.793312
 Al  0.796950  6.276469  2.717350
 Al  4.552314  0.846134 11.736321
 Al  6.359769  0.849079 13.661884
 Al  2.655825  0.778910  9.886763
 Al  0.918354  2.668334 13.486907
 Al  6.253689 11.730369 13.555979
 Al  0.906493 13.651863 13.494545
 Al  2.880838 11.698827 13.466359
 Al  4.733174  8.230542 11.713472
 Al  4.811013  6.182558 13.560185
 Al  2.670902  6.128232 11.720617
 Al  2.697801  2.727008  8.074506
 Al  6.276545 11.723431  9.896689
 Al  2.766331 11.712999  9.900853
 Al  2.725504  6.133022  8.032922
 Al  2.822548  6.308402  4.690049
 Al  2.613683  8.210567  9.898025
 Ni  8.217596  6.262879  9.926639
 Ni 10.035898  4.458782  9.931933
 Ni 10.041238  6.280725  8.142367
 Ni 11.849863  6.279236  9.924916
 Ni 13.643964  4.465743  9.907759
 Ni 13.628352  6.288171  8.115323
 Ni  8.227807  9.975842  9.907687
 Ni 10.029948  8.096007  9.929397
 Ni 10.062398  9.895525  8.124087
 Ni 11.860999  9.893867  9.939683
 Ni 13.671951  8.086953  9.929379
 Ni 13.650958  9.908779  8.127301
 Ni  8.224767 13.447756  9.924440
 Ni 10.079649 11.710185  9.909281
 Ni 10.040212 13.518731  8.108518
 Ni 11.855125 13.524614  9.902349
 Ni 13.643748 11.711899  9.922883
 Ni 13.668138 13.507253  8.095518
 Ni  8.209747  2.655117  9.938082
 Ni 10.051066  0.845509  9.908484
 Ni 10.023550  2.652424  8.119668
 Ni 11.840921  2.653663  9.902598
 Ni 13.679701  0.858892  9.894042
 Ni 13.659423  2.651030  8.106156
 Ni  6.516003  6.259570  0.884781
 Ni 10.018535  4.469208 13.521428
 Ni 10.022520  6.281173 11.718468
 Ni 11.823225  6.283651 13.508934
 Ni 13.641636  4.484823 13.524805
 Ni 13.654988  6.268700 11.714814
 Ni  8.229789  9.979654 13.548200
 Ni 10.018244  8.089794 13.523431
 Ni 10.046025  9.896859 11.732681
 Ni 11.849291  9.880028 13.533318
 Ni 13.650645  8.082390 13.529083
 Ni 13.675122  9.902447 11.744299
 Ni  8.223176 13.522800 13.562148
 Ni 10.079984 11.716485 13.561221
 Ni 10.075374 13.520644 11.734135
 Ni 11.880473 13.500120 13.544479
 Ni 13.700928 11.693196 13.543132
 Ni 13.649765 13.521784 11.701661
 Ni  8.229950  2.564368 13.543510
 Ni 10.069826  0.835932 13.539016
 Ni 10.040379  2.647497 11.731594
 Ni 11.841397  2.688678 13.534779
 Ni 13.608525  0.889438 13.557007
 Ni 13.616440  2.659990 11.687923
 Ni  8.244399  6.264385  2.714492
 Ni 10.038378  4.470646  2.694944
 Ni 10.016478  6.274811  0.871188
 Ni 11.843718  6.278503  2.689776
 Ni 13.619296  4.442821  2.695357
 Ni 13.609246  6.269784  0.837593
 Ni  8.241100  9.903229  2.684333
 Ni 10.030817  8.081515  2.690184
 Ni 10.048770  9.896052  0.877542
 Ni 11.825042  9.887035  2.689596
 Ni 13.617931  8.105819  2.688495
 Ni 13.645645  9.855392  0.879904
 Ni  8.243404 13.503776  2.707922
 Ni 10.065549 11.701454  2.712580
 Ni 10.069591 13.501896  0.894778
 Ni 11.852957 13.506454  2.704123
 Ni 13.624076 11.676257  2.739369
 Ni 13.663620 13.534958  0.905103
 Ni  8.251883  2.661110  2.696091
 Ni 10.072492  0.850627  2.730161
 Ni 10.051289  2.663463  0.877868
 Ni 11.824827  2.663590  2.698060
 Ni 13.632963  0.879313  2.666681
 Ni 13.633365  2.676265  0.899092
 Ni  8.246788  6.283737  6.346762
 Ni 10.028500  4.463563  6.335550
 Ni 10.044601  6.280254  4.516575
 Ni 11.817722  6.268130  6.340435
 Ni 13.639131  4.475752  6.314745
 Ni 13.596134  6.279452  4.548933
 Ni  8.239840  9.881472  6.331201
 Ni 10.051151  8.089926  6.332648
 Ni 10.034155  9.888641  4.509250
 Ni 11.858219  9.894208  6.309502
 Ni 13.625756  8.074368  6.311057
 Ni 13.644462  9.871242  4.484957
 Ni  8.226005 13.518068  6.291464
 Ni 10.058314 11.702072  6.298977
 Ni 10.051716 13.512564  4.509761
 Ni 11.840880 13.514149  6.311204
 Ni 13.666177 11.719205  6.284413
 Ni 13.637401 13.483528  4.493626
 Ni  8.214826  2.659779  6.322869
 Ni 10.032249  0.855001  6.311755
 Ni 10.033867  2.662317  4.518559
 Ni 11.839274  2.665212  6.322436
 Ni 13.638069  0.845552  6.324216
 Ni 13.607178  2.706802  4.504499
 Ni  0.977253  6.269663  9.899289
 Ni  2.787388  4.443511  9.912320
 Ni  0.922197  4.470308  8.090173
 Ni  4.490092  6.373861  9.933703
 Ni  6.357214  4.457277  9.935338
 Ni  4.585681  9.864429  9.890625
 Ni  4.624043  4.430431  8.128238
 Ni  0.944054  8.067793  8.102504
 Ni  0.926598  9.943552  9.906463
 Ni  4.550302 11.712938 11.699097
 Ni  6.444656  8.123603  9.912009
 Ni  6.400657  9.940178  8.082067
 Ni  2.800043  9.908149  8.084794
 Ni  0.944554 13.482023  9.919208
 Ni  4.551296 11.703329  8.067494
 Ni  2.764853 13.518749  8.055979
 Ni  4.566552 13.562320  9.890575
 Ni  6.459596 10.010304 11.722536
 Ni  6.421937 13.499200  8.130791
 Ni  0.972653  2.668267  9.896555
 Ni  4.569864  0.898306  8.107113
 Ni  0.994841  0.848830  8.052238
 Ni  4.568379  2.619921  9.909146
 Ni  6.397992  0.821397  9.900453
 Ni  6.413147  2.642660  8.163709
 Ni  2.784786  0.890468  6.216112
 Ni  0.941366  6.249321 13.514381
 Ni  2.810216  4.442084 13.556035
 Ni  0.932648  4.427296 11.699600
 Ni  6.448196  4.377651 13.529585
 Ni  6.383817  6.271820 11.676242
 Ni  4.592184  4.438217 11.713082
 Ni  1.043177  9.908250 13.571397
 Ni  2.864875  7.951344 13.432694
 Ni  2.765796  9.878666 11.730786
 Ni  0.973356  8.076150 11.744002
 Ni  4.589287  9.868140 13.571554
 Ni  8.206279  6.273659 13.499896
 Ni  6.430958  8.133057 13.553185
 Ni  0.942297  0.889018 11.702664
 Ni  0.971166 11.708500 11.753442
 Ni  4.565592 13.564580 13.583944
 Ni  6.387139 13.514998 11.744228
 Ni  2.763701 13.535571 11.742005
 Ni  2.765516  0.925471 13.605458
 Ni  2.786940  2.658238 11.696403
 Ni  4.614435  2.672455 13.548094
 Ni  6.390319  2.584418 11.734594
 Ni  0.957658  4.464833  0.880729
 Ni  6.448964  4.450914  2.707696
 Ni  4.651171  4.501201  0.922413
 Ni  0.986673  9.808579  2.687369
 Ni  0.935627  8.032762  0.847974
 Ni  2.781512  7.904476  2.749988
 Ni  6.485241  8.085443  2.697175
 Ni  6.417573  9.920667  0.886184
 Ni  4.665080  8.044263  0.907116
 Ni  0.956803 13.522194  2.706320
 Ni  2.779065 11.595572  2.649036
 Ni  2.703645 13.466663  0.850511
 Ni  4.594833 13.488372  2.655052
 Ni  6.404726 11.700605  2.701886
 Ni  6.405109 13.485136  0.916263
 Ni  4.536351 11.658045  0.950230
 Ni  0.958094  2.721620  2.713573
 Ni  2.759319  0.838328  2.756154
 Ni  0.984743  0.916643  0.946492
 Ni  4.652509  2.686683  2.719594
 Ni  6.402772  0.842612  2.690113
 Ni  6.413030  2.640336  0.914604
 Ni  4.561306  0.844779  0.952235
 Ni  0.933252  6.285024  6.312871
 Ni  2.817074  4.380392  6.265438
 Ni  2.799386  4.704049  2.716508
 Ni  0.955564  4.505457  4.515395
 Ni  4.655107  6.241189  6.361062
 Ni  6.440990  4.498998  6.325051
 Ni  6.460591  6.284525  4.553043
 Ni  4.672701  4.513889  4.505715
 Ni  0.968642 11.729333  8.092449
 Ni  2.828949  8.095333  6.360724
 Ni  2.764380  9.843729  4.469854
 Ni  0.969188  8.056183  4.514862
 Ni  6.423637  6.249582  8.157442
 Ni  6.491792  9.887021  4.514693
 Ni  6.399841  8.075369  6.281973
 Ni  0.993309 13.509854  6.252468
 Ni  2.773325 11.720034  6.272282
 Ni  0.973656 11.660307  4.450546
 Ni  6.423745 11.702941  6.286946
 Ni  6.404068 13.503541  4.462022
 Ni  4.628464 11.715062  4.466096
 Ni  0.944622  2.668419  6.258729
 Ni  4.629974  0.833689  4.472456
 Ni  6.438459  0.838916  6.296035
 Ni  6.455670  2.661458  4.465662
 %ENDBLOCK POSITIONS_ABS
 
%block positions_abs_product 
     ang 
Al  8.227513  4.454282  8.140204
 Al 11.841514  4.453926  8.123017
 Al  8.231185  8.091798  8.132107
 Al 11.855489  8.092227  8.133412
 Al  8.306821 11.713770  8.045580
 Al 11.875347 11.705743  8.101438
 Al  8.230755  0.844698  8.130986
 Al 11.851172  0.851158  8.108855
 Al  8.216825  4.440598 11.722476
 Al 11.835308  4.475739 11.717891
 Al  8.214968  8.105318 11.713931
 Al 11.857332  8.080244 11.721208
 Al  8.373255 11.734050 11.746042
 Al 11.868293 11.693744 11.738207
 Al  8.282425  0.819893 11.660896
 Al 11.866008  0.856921 11.719428
 Al  8.242815  4.433584  0.868976
 Al 11.829834  4.485155  0.877363
 Al  8.241968  8.097047  0.876826
 Al 11.829468  8.070760  0.874778
 Al  8.300755 11.713919  0.945548
 Al 11.897715 11.686877  0.889335
 Al  8.340366  0.838126  0.982672
 Al 11.834066  0.857598  0.889433
 Al  8.251669  4.464021  4.527596
 Al 11.811566  4.475979  4.514203
 Al  8.254510  8.075698  4.519010
 Al 11.835316  8.086070  4.505908
 Al  8.243060 11.707881  4.505304
 Al 11.842297 11.682165  4.517615
 Al  8.240235  0.849780  4.493977
 Al 11.873591  0.852213  4.516580
 Al  4.764903  2.663541  6.291653
 Al  0.825753  0.869011  4.485526
 Al  2.809155  2.748877  4.383463
 Al  4.666333 13.531333  6.369028
 Al  2.780328 13.412348  4.405027
 Al  4.722756  8.059852  8.085342
 Al  0.974755  9.887255  6.315091
 Al  2.857276  2.714360  1.018207
 Al  0.861736 11.669761  1.012800
 Al  4.689179  9.848878  2.796356
 Al  2.794137  9.647614  0.881770
 Al  4.781316  6.267347  2.710183
 Al  4.608056  9.980669  6.222225
 Al  2.733290  6.278590  0.799170
 Al  0.819349  6.271785  2.734433
 Al  4.552847  0.849012 11.735540
 Al  6.362909  0.848423 13.657281
 Al  2.652548  0.776332  9.893930
 Al  0.915530  2.670233 13.485541
 Al  6.253935 11.730174 13.551395
 Al  0.901255 13.649728 13.492346
 Al  2.877722 11.697804 13.462262
 Al  4.735142  8.225582 11.708028
 Al  4.811539  6.177495 13.555941
 Al  2.676253  6.126099 11.714045
 Al  2.702835  2.716045  8.085767
 Al  6.280287 11.721702  9.900888
 Al  2.763604 11.713461  9.906639
 Al  2.747296  6.117815  8.008513
 Al  2.890192  6.261870  4.751159
 Al  2.618071  8.202592  9.891439
 Ni  8.211752  6.255415  9.918246
 Ni 10.038757  4.458484  9.930973
 Ni 10.042854  6.275445  8.139096
 Ni 11.855716  6.278111  9.920882
 Ni 13.645626  4.466917  9.907525
 Ni 13.638643  6.285847  8.110132
 Ni  8.230946  9.971932  9.908953
 Ni 10.035726  8.090064  9.929444
 Ni 10.064598  9.893013  8.122743
 Ni 11.864833  9.887608  9.938418
 Ni 13.679371  8.082588  9.923586
 Ni 13.655633  9.903712  8.125174
 Ni  8.230104 13.445355  9.927324
 Ni 10.084594 11.705678  9.910529
 Ni 10.044283 13.516244  8.111224
 Ni 11.857196 13.522003  9.903210
 Ni 13.643249 11.705887  9.924343
 Ni 13.666543 13.504388  8.097587
 Ni  8.212362  2.656223  9.937980
 Ni 10.054850  0.844591  9.910395
 Ni 10.026571  2.651490  8.119841
 Ni 11.842502  2.653689  9.902433
 Ni 13.679900  0.858795  9.895437
 Ni 13.655822  2.648031  8.107874
 Ni  6.512864  6.255558  0.883054
 Ni 10.019746  4.470040 13.521340
 Ni 10.022900  6.279493 11.715315
 Ni 11.824254  6.284269 13.511997
 Ni 13.644053  4.487340 13.525648
 Ni 13.658205  6.269292 11.715072
 Ni  8.233498  9.975715 13.544486
 Ni 10.016226  8.085598 13.524476
 Ni 10.051793  9.890473 11.732039
 Ni 11.853157  9.871995 13.536947
 Ni 13.660464  8.077418 13.535910
 Ni 13.677297  9.894728 11.744357
 Ni  8.227242 13.520697 13.558919
 Ni 10.084027 11.711525 13.561224
 Ni 10.080607 13.517638 11.734598
 Ni 11.883929 13.496717 13.545951
 Ni 13.703074 11.686834 13.544277
 Ni 13.648732 13.519225 11.701933
 Ni  8.234241  2.563544 13.540905
 Ni 10.074343  0.833985 13.537920
 Ni 10.044325  2.647863 11.731550
 Ni 11.843901  2.690986 13.536240
 Ni 13.607813  0.890686 13.558382
 Ni 13.617275  2.661792 11.686980
 Ni  8.231763  6.261109  2.720926
 Ni 10.036376  4.471223  2.694911
 Ni 10.010238  6.273052  0.876128
 Ni 11.845674  6.277847  2.693357
 Ni 13.624995  4.446353  2.697316
 Ni 13.617426  6.267895  0.844832
 Ni  8.229764  9.898239  2.687703
 Ni 10.026785  8.077286  2.692025
 Ni 10.046320  9.891507  0.881264
 Ni 11.826578  9.879671  2.692567
 Ni 13.627487  8.099085  2.697460
 Ni 13.653130  9.847521  0.887368
 Ni  8.248494 13.505014  2.704685
 Ni 10.063777 11.695109  2.710871
 Ni 10.072850 13.497509  0.892905
 Ni 11.855164 13.499836  2.703754
 Ni 13.628835 11.667819  2.742074
 Ni 13.664827 13.533729  0.906228
 Ni  8.254282  2.655266  2.695681
 Ni 10.076881  0.848392  2.728115
 Ni 10.053395  2.663158  0.877553
 Ni 11.827137  2.665531  2.698558
 Ni 13.632573  0.878100  2.666591
 Ni 13.635206  2.677748  0.902204
 Ni  8.229784  6.282903  6.348005
 Ni 10.028712  4.464477  6.337301
 Ni 10.040783  6.277799  4.517746
 Ni 11.820107  6.267888  6.339487
 Ni 13.643255  4.477101  6.315460
 Ni 13.607501  6.278572  4.553482
 Ni  8.235482  9.882035  6.333819
 Ni 10.048126  8.087075  6.331448
 Ni 10.031089  9.884665  4.509078
 Ni 11.860858  9.889252  6.308748
 Ni 13.635578  8.068647  6.309098
 Ni 13.651798  9.863160  4.487919
 Ni  8.231335 13.520444  6.295955
 Ni 10.057442 11.696200  6.300200
 Ni 10.053760 13.509055  4.508558
 Ni 11.838586 13.510150  6.310128
 Ni 13.667005 11.716868  6.283983
 Ni 13.640009 13.476759  4.492382
 Ni  8.208572  2.661273  6.326958
 Ni 10.034200  0.856656  6.312896
 Ni 10.036655  2.659761  4.519598
 Ni 11.841694  2.665704  6.321785
 Ni 13.631509  0.836811  6.324904
 Ni 13.607477  2.708624  4.504919
 Ni  0.983772  6.266028  9.894419
 Ni  2.792549  4.440252  9.906316
 Ni  0.924668  4.462280  8.092873
 Ni  4.491617  6.365707  9.902013
 Ni  6.351724  4.458126  9.928103
 Ni  4.588537  9.860206  9.889736
 Ni  4.628529  4.446323  8.110885
 Ni  0.958814  8.064030  8.093193
 Ni  0.928488  9.938015  9.907064
 Ni  4.549608 11.712699 11.697247
 Ni  6.443009  8.116482  9.902100
 Ni  6.401796  9.937080  8.087823
 Ni  2.798102  9.911521  8.094559
 Ni  0.940732 13.480246  9.922943
 Ni  4.550968 11.717108  8.085220
 Ni  2.760575 13.522052  8.064069
 Ni  4.567823 13.565251  9.897129
 Ni  6.461223 10.006150 11.720908
 Ni  6.424771 13.500574  8.136125
 Ni  0.972839  2.668303  9.898827
 Ni  4.570789  0.893281  8.111828
 Ni  0.990843  0.846663  8.056612
 Ni  4.570038  2.614572  9.910959
 Ni  6.401558  0.819534  9.902799
 Ni  6.411114  2.643693  8.166849
 Ni  2.780666  0.890584  6.221167
 Ni  0.948354  6.247791 13.516936
 Ni  2.810519  4.442345 13.553682
 Ni  0.934528  4.430624 11.698960
 Ni  6.449227  4.375403 13.526345
 Ni  6.378678  6.269433 11.668956
 Ni  4.592589  4.435946 11.710282
 Ni  1.044684  9.900287 13.572006
 Ni  2.867367  7.945694 13.429122
 Ni  2.766803  9.873217 11.728432
 Ni  0.976875  8.071184 11.741655
 Ni  4.588541  9.867117 13.563672
 Ni  8.203307  6.270796 13.496999
 Ni  6.434076  8.130624 13.548386
 Ni  0.938662  0.889053 11.704127
 Ni  0.969008 11.702647 11.752974
 Ni  4.563588 13.567595 13.578628
 Ni  6.389012 13.513580 11.743476
 Ni  2.760659 13.534924 11.743691
 Ni  2.761512  0.926539 13.600270
 Ni  2.783656  2.659006 11.696584
 Ni  4.613664  2.671513 13.543664
 Ni  6.393810  2.584703 11.734941
 Ni  0.961112  4.462567  0.882090
 Ni  6.452654  4.436559  2.710558
 Ni  4.653245  4.491683  0.919052
 Ni  0.997470  9.804811  2.696027
 Ni  0.950626  8.024982  0.867791
 Ni  2.802365  7.901466  2.755645
 Ni  6.458713  8.084285  2.707402
 Ni  6.417975  9.920155  0.874720
 Ni  4.666037  8.036995  0.883925
 Ni  0.957579 13.519687  2.707465
 Ni  2.778185 11.601915  2.646360
 Ni  2.699287 13.470070  0.845338
 Ni  4.594034 13.493683  2.650774
 Ni  6.411303 11.715206  2.701139
 Ni  6.407339 13.487960  0.910854
 Ni  4.533822 11.671330  0.939267
 Ni  0.958719  2.718473  2.716048
 Ni  2.759948  0.836411  2.754535
 Ni  0.983033  0.917184  0.946189
 Ni  4.656039  2.677864  2.716326
 Ni  6.404510  0.840361  2.688498
 Ni  6.416596  2.635927  0.909463
 Ni  4.561454  0.845418  0.945943
 Ni  0.962662  6.276176  6.311574
 Ni  2.797606  4.336823  6.273879
 Ni  2.800448  4.679681  2.723036
 Ni  0.961887  4.495111  4.521392
 Ni  4.644543  8.030411  4.551043
 Ni  6.419933  4.520154  6.327439
 Ni  6.444030  6.274723  4.578253
 Ni  4.678531  4.487637  4.524834
 Ni  0.965302 11.729816  8.096573
 Ni  2.846450  8.092079  6.379378
 Ni  2.790336  9.855958  4.485027
 Ni  0.985506  8.051379  4.525962
 Ni  6.402240  6.246063  8.129963
 Ni  6.479735  9.890025  4.526498
 Ni  6.404390  8.063953  6.300744
 Ni  0.990535 13.510227  6.255934
 Ni  2.767773 11.731016  6.284704
 Ni  0.984368 11.648829  4.454105
 Ni  6.432781 11.715457  6.294398
 Ni  6.412836 13.510125  4.464377
 Ni  4.633455 11.747776  4.475500
 Ni  0.927822  2.653556  6.266403
 Ni  4.632041  0.831127  4.476417
 Ni  6.440106  0.836186  6.301386
 Ni  6.461451  2.654022  4.471667
%endblock positions_abs_product 
%block positions_abs_intermediate 
     ang 
Al  8.227704  4.456556  8.141230
 Al 11.839800  4.454020  8.123727
 Al  8.222986  8.093792  8.125964
 Al 11.853796  8.093985  8.135179
 Al  8.304653 11.713920  8.043361
 Al 11.873357 11.708091  8.102065
 Al  8.228672  0.845179  8.128713
 Al 11.851080  0.852411  8.107958
 Al  8.215778  4.440798 11.723405
 Al 11.834085  4.474957 11.717530
 Al  8.214705  8.108197 11.717015
 Al 11.854983  8.082819 11.720476
 Al  8.370908 11.735845 11.745933
 Al 11.866617 11.696413 11.737204
 Al  8.279933  0.820304 11.661189
 Al 11.864486  0.856715 11.718902
 Al  8.242732  4.435229  0.870104
 Al 11.828782  4.483717  0.876654
 Al  8.243975  8.098618  0.875058
 Al 11.828177  8.073214  0.872820
 Al  8.300490 11.715191  0.947091
 Al 11.895549 11.690252  0.888486
 Al  8.338442  0.839079  0.984718
 Al 11.833299  0.857842  0.889220
 Al  8.248900  4.469044  4.525197
 Al 11.811028  4.475263  4.513919
 Al  8.253768  8.076828  4.519679
 Al 11.835878  8.088007  4.504962
 Al  8.242077 11.707570  4.505262
 Al 11.841674 11.685073  4.517902
 Al  8.236773  0.851372  4.493521
 Al 11.872847  0.853667  4.517936
 Al  4.765702  2.663998  6.287475
 Al  0.827290  0.870052  4.485148
 Al  2.806359  2.756025  4.382211
 Al  4.667441 13.529384  6.366014
 Al  2.781572 13.410603  4.403395
 Al  4.724237  8.070495  8.091209
 Al  0.971038  9.887313  6.313609
 Al  2.857706  2.716408  1.019496
 Al  0.862110 11.670988  1.012632
 Al  4.683778  9.813203  2.822240
 Al  2.795628  9.648567  0.885795
 Al  4.782662  6.288166  2.713165
 Al  4.607171  9.953701  6.194147
 Al  2.730729  6.282465  0.796241
 Al  0.808150  6.274127  2.725892
 Al  4.552580  0.847573 11.735931
 Al  6.361339  0.848751 13.659582
 Al  2.654186  0.777621  9.890346
 Al  0.916942  2.669284 13.486224
 Al  6.253812 11.730272 13.553687
 Al  0.903874 13.650796 13.493445
 Al  2.879280 11.698315 13.464311
 Al  4.734158  8.228062 11.710750
 Al  4.811276  6.180026 13.558063
 Al  2.673577  6.127166 11.717331
 Al  2.700318  2.721526  8.080137
 Al  6.278416 11.722566  9.898788
 Al  2.764967 11.713230  9.903746
 Al  2.736400  6.125419  8.020717
 Al  2.856370  6.285136  4.720604
 Al  2.615877  8.206579  9.894732
 Ni  8.214674  6.259147  9.922443
 Ni 10.037328  4.458633  9.931453
 Ni 10.042046  6.278085  8.140731
 Ni 11.852790  6.278674  9.922899
 Ni 13.644795  4.466330  9.907642
 Ni 13.633498  6.287009  8.112727
 Ni  8.229376  9.973887  9.908320
 Ni 10.032837  8.093036  9.929421
 Ni 10.063498  9.894269  8.123415
 Ni 11.862916  9.890738  9.939050
 Ni 13.675661  8.084770  9.926482
 Ni 13.653295  9.906246  8.126237
 Ni  8.227435 13.446556  9.925882
 Ni 10.082121 11.707932  9.909905
 Ni 10.042248 13.517487  8.109871
 Ni 11.856160 13.523308  9.902780
 Ni 13.643498 11.708893  9.923613
 Ni 13.667341 13.505821  8.096553
 Ni  8.211055  2.655670  9.938031
 Ni 10.052958  0.845050  9.909439
 Ni 10.025060  2.651957  8.119754
 Ni 11.841711  2.653676  9.902516
 Ni 13.679801  0.858844  9.894740
 Ni 13.657622  2.649530  8.107015
 Ni  6.514434  6.257564  0.883918
 Ni 10.019140  4.469624 13.521384
 Ni 10.022710  6.280333 11.716892
 Ni 11.823739  6.283960 13.510466
 Ni 13.642845  4.486081 13.525227
 Ni 13.656596  6.268996 11.714943
 Ni  8.231644  9.977685 13.546343
 Ni 10.017235  8.087696 13.523953
 Ni 10.048909  9.893666 11.732360
 Ni 11.851224  9.876012 13.535132
 Ni 13.655555  8.079904 13.532496
 Ni 13.676209  9.898587 11.744328
 Ni  8.225209 13.521749 13.560534
 Ni 10.082006 11.714005 13.561223
 Ni 10.077991 13.519141 11.734367
 Ni 11.882201 13.498419 13.545215
 Ni 13.702001 11.690015 13.543705
 Ni 13.649248 13.520504 11.701797
 Ni  8.232096  2.563956 13.542208
 Ni 10.072085  0.834958 13.538468
 Ni 10.042352  2.647680 11.731572
 Ni 11.842649  2.689832 13.535510
 Ni 13.608169  0.890062 13.557695
 Ni 13.616857  2.660891 11.687452
 Ni  8.238081  6.262747  2.717709
 Ni 10.037377  4.470935  2.694928
 Ni 10.013358  6.273932  0.873658
 Ni 11.844696  6.278175  2.691567
 Ni 13.622146  4.444587  2.696337
 Ni 13.613336  6.268840  0.841212
 Ni  8.235432  9.900734  2.686018
 Ni 10.028801  8.079400  2.691104
 Ni 10.047545  9.893780  0.879403
 Ni 11.825810  9.883353  2.691082
 Ni 13.622709  8.102452  2.692977
 Ni 13.649388  9.851456  0.883636
 Ni  8.245949 13.504395  2.706303
 Ni 10.064663 11.698282  2.711726
 Ni 10.071221 13.499702  0.893842
 Ni 11.854060 13.503145  2.703938
 Ni 13.626456 11.672038  2.740721
 Ni 13.664224 13.534344  0.905666
 Ni  8.253083  2.658188  2.695886
 Ni 10.074686  0.849509  2.729138
 Ni 10.052342  2.663311  0.877710
 Ni 11.825982  2.664561  2.698309
 Ni 13.632768  0.878707  2.666636
 Ni 13.634285  2.677007  0.900648
 Ni  8.238286  6.283320  6.347383
 Ni 10.028606  4.464020  6.336425
 Ni 10.042692  6.279026  4.517160
 Ni 11.818915  6.268009  6.339961
 Ni 13.641193  4.476427  6.315102
 Ni 13.601817  6.279012  4.551207
 Ni  8.237661  9.881753  6.332510
 Ni 10.049638  8.088501  6.332048
 Ni 10.032622  9.886653  4.509164
 Ni 11.859538  9.891730  6.309125
 Ni 13.630667  8.071507  6.310077
 Ni 13.648130  9.867201  4.486438
 Ni  8.228670 13.519256  6.293710
 Ni 10.057878 11.699136  6.299589
 Ni 10.052738 13.510809  4.509159
 Ni 11.839733 13.512150  6.310666
 Ni 13.666591 11.718037  6.284198
 Ni 13.638705 13.480143  4.493004
 Ni  8.211699  2.660526  6.324913
 Ni 10.033225  0.855829  6.312325
 Ni 10.035261  2.661039  4.519079
 Ni 11.840484  2.665458  6.322110
 Ni 13.634789  0.841182  6.324560
 Ni 13.607328  2.707713  4.504709
 Ni  0.980513  6.267846  9.896854
 Ni  2.789969  4.441882  9.909318
 Ni  0.923432  4.466294  8.091523
 Ni  4.490854  6.369784  9.917858
 Ni  6.354469  4.457702  9.931721
 Ni  4.587109  9.862318  9.890180
 Ni  4.626286  4.438377  8.119562
 Ni  0.951434  8.065911  8.097848
 Ni  0.927543  9.940783  9.906764
 Ni  4.549955 11.712818 11.698172
 Ni  6.443832  8.120042  9.907055
 Ni  6.401227  9.938629  8.084945
 Ni  2.799072  9.909835  8.089676
 Ni  0.942643 13.481135  9.921076
 Ni  4.551132 11.710218  8.076357
 Ni  2.762714 13.520401  8.060024
 Ni  4.567188 13.563785  9.893852
 Ni  6.460409 10.008227 11.721722
 Ni  6.423354 13.499887  8.133458
 Ni  0.972746  2.668285  9.897691
 Ni  4.570326  0.895793  8.109470
 Ni  0.992842  0.847746  8.054425
 Ni  4.569209  2.617246  9.910053
 Ni  6.399775  0.820465  9.901626
 Ni  6.412130  2.643176  8.165279
 Ni  2.782726  0.890526  6.218640
 Ni  0.944860  6.248556 13.515658
 Ni  2.810367  4.442215 13.554859
 Ni  0.933588  4.428960 11.699280
 Ni  6.448711  4.376527 13.527965
 Ni  6.381247  6.270627 11.672599
 Ni  4.592387  4.437081 11.711682
 Ni  1.043930  9.904268 13.571702
 Ni  2.866121  7.948519 13.430908
 Ni  2.766300  9.875942 11.729609
 Ni  0.975116  8.073667 11.742828
 Ni  4.588914  9.867628 13.567613
 Ni  8.204793  6.272228 13.498447
 Ni  6.432517  8.131841 13.550786
 Ni  0.940480  0.889036 11.703395
 Ni  0.970087 11.705573 11.753208
 Ni  4.564590 13.566087 13.581286
 Ni  6.388075 13.514289 11.743852
 Ni  2.762180 13.535247 11.742848
 Ni  2.763514  0.926005 13.602864
 Ni  2.785298  2.658622 11.696493
 Ni  4.614049  2.671984 13.545879
 Ni  6.392065  2.584560 11.734768
 Ni  0.959385  4.463700  0.881410
 Ni  6.450809  4.443737  2.709127
 Ni  4.652208  4.496442  0.920733
 Ni  0.992072  9.806695  2.691698
 Ni  0.943126  8.028872  0.857883
 Ni  2.791939  7.902971  2.752817
 Ni  6.471977  8.084864  2.702288
 Ni  6.417774  9.920411  0.880452
 Ni  4.665559  8.040629  0.895521
 Ni  0.957191 13.520940  2.706893
 Ni  2.778625 11.598743  2.647698
 Ni  2.701466 13.468367  0.847925
 Ni  4.594433 13.491027  2.652913
 Ni  6.408015 11.707906  2.701512
 Ni  6.406224 13.486548  0.913559
 Ni  4.535087 11.664688  0.944748
 Ni  0.958407  2.720047  2.714811
 Ni  2.759633  0.837369  2.755344
 Ni  0.983888  0.916914  0.946341
 Ni  4.654274  2.682274  2.717960
 Ni  6.403641  0.841486  2.689306
 Ni  6.414813  2.638131  0.912034
 Ni  4.561380  0.845098  0.949089
 Ni  0.947957  6.280600  6.312223
 Ni  2.807340  4.358607  6.269658
 Ni  2.799917  4.691865  2.719772
 Ni  0.958725  4.500284  4.518393
 Ni  4.649825  7.135800  5.456053
 Ni  6.430462  4.509576  6.326245
 Ni  6.452311  6.279624  4.565648
 Ni  4.675616  4.500763  4.515275
 Ni  0.966972 11.729574  8.094511
 Ni  2.837700  8.093706  6.370051
 Ni  2.777358  9.849844  4.477440
 Ni  0.977347  8.053781  4.520412
 Ni  6.412939  6.247823  8.143702
 Ni  6.485764  9.888523  4.520595
 Ni  6.402116  8.069661  6.291358
 Ni  0.991922 13.510040  6.254201
 Ni  2.770549 11.725525  6.278493
 Ni  0.979012 11.654568  4.452325
 Ni  6.428263 11.709199  6.290672
 Ni  6.408452 13.506833  4.463199
 Ni  4.630960 11.731419  4.470798
 Ni  0.936222  2.660987  6.262566
 Ni  4.631007  0.832408  4.474436
 Ni  6.439282  0.837551  6.298710
 Ni  6.458561  2.657740  4.468664
%endblock positions_abs_intermediate 
     kpoint_mp_grid 1 1 1 
     fix_com : false