#######################################################
#CASTEP cell file: /home/u2093113/Documents/kART/CASTEP/castep.cell
#Created using the Atomic Simulation Environment (ASE)#
#######################################################

%BLOCK LATTICE_CART
14.464828  0.000000  0.000000
 0.000000 14.464828  0.000000
 0.000000  0.000000 14.464828
%ENDBLOCK LATTICE_CART

%BLOCK POSITIONS_ABS
Al  1.019302  0.909326 11.785552
Al  0.949698  4.567125 11.812706
Al  0.968697  8.170136 11.707460
Al  1.005516 11.659673 11.664167
Al  0.932037  0.804025  0.886487
Al  0.984516  4.607531  0.815911
Al  1.014246  8.138011  0.894355
Al  0.934325 11.740899  0.991630
Al  1.021921  0.967827  4.538445
Al  1.070887  4.595057  4.514785
Al  1.073168  8.100161  4.553430
Al  0.927816 11.643788  4.591014
Al  1.003150  0.950184  8.173133
Al  1.045292  4.603048  8.244253
Al  1.089873  7.990993  8.213536
Al  1.030588 11.783114  8.161728
Al 11.484194 11.724227  8.148396
Al 13.447497 13.641019  8.157143
Al  7.899976 13.462536 13.497039
Al  8.226026 11.748069  8.155387
Al  7.892495  8.230981  8.112562
Al  9.938936 13.522676 11.699266
Al  6.182421 11.847467  9.957927
Al 13.488116  9.869841  8.216864
Al  9.862253  6.460133 11.851596
Al  7.934347  6.264696  9.949690
Al  4.561254  8.281863  8.167728
Al 11.762377  6.333437  9.859036
Al  9.830342  2.752010  8.322312
Al  4.541561  4.320051  8.193067
Al  4.530967  6.304980 10.137959
Al 13.494456 13.576514  4.704535
Al  6.267910 11.711340  6.253007
Al  4.403809 13.673045  6.334177
Al 13.402812  8.021367  6.288934
Al  9.918276  8.188634  6.241924
Al  4.495400  8.250255  4.415581
Al 13.378623  4.681455  6.353864
Al  9.805147  4.587861  6.266768
Al  7.164322  6.323791  5.361085
Al  4.536460  6.239662  6.244474
Al 13.372059  4.683338  2.702336
Al 13.329696  2.608983  4.541991
Al  9.861613  0.827988  6.285607
Al  6.306986  2.690988  4.697624
Al 13.395319 11.652848 13.605744
Al 11.748506 13.538888  2.737018
Al  9.905225 13.449656  0.869744
Al  4.349747 13.482832  2.716880
Al 11.747668 10.074155  2.881619
Al 13.478826  8.044547  2.745358
Al  9.902690  9.993847  0.972786
Al  8.049782  4.414915  0.925073
Al  9.944206  6.473420  0.993782
Al  6.191377  4.586893  2.754615
Al 13.377559  2.639859  0.817374
Al  8.090453  1.039288  0.873394
Al  6.245575  0.904242  2.724250
Al 13.380169 13.589309 11.642655
Al 13.371547  8.170984 13.549359
Al  9.926000  9.899135 11.667062
Al  7.993326  9.963834 13.648998
Al  6.147437  9.871844 11.769673
Al 13.386480  2.724696 11.784824
Al 13.348512  2.716285  8.242675
Al  9.962755  4.366092 13.509770
Ni  0.869570  2.701712 13.588501
Ni  2.701463  0.891461 13.590570
Ni  2.736807  2.716880 11.798228
Ni  0.852678  6.416609 13.569272
Ni  2.726195  4.510085 13.568257
Ni  2.707069  6.323993 11.838593
Ni  0.877136  9.952871 13.567136
Ni  2.728521  8.140391 13.581902
Ni  2.758843  9.930158 11.781901
Ni  0.808322 13.430823 13.438241
Ni  2.702483 11.746507 13.579987
Ni  2.727397 13.559787 11.779337
Ni  0.774787  2.857568  2.679581
Ni  2.671889  0.950184  2.694703
Ni  2.698070  2.713696  0.918513
Ni  0.914691  6.322863  2.693834
Ni  2.756275  4.522941  2.688989
Ni  2.741438  6.339212  0.902819
Ni  0.873624  9.851742  2.741458
Ni  2.739203  8.146723  2.685955
Ni  2.692002  9.955958  0.919418
Ni  0.888622 13.567433  2.800088
Ni  2.657999 11.705722  2.740326
Ni  2.673648 13.532686  0.871142
Ni  0.764986  2.856271  6.353374
Ni  2.666817  0.982597  6.351434
Ni  2.720655  2.736339  4.512094
Ni  0.984218  6.309690  6.329272
Ni  2.758122  4.470796  6.356721
Ni  2.804088  6.330114  4.493295
Ni  0.871916  9.821023  6.459084
Ni  2.821708  8.115208  6.356781
Ni  2.707453  9.954520  4.537521
Ni  0.896262 13.593013  6.374271
Ni  2.681848 11.748809  6.336122
Ni  2.666266 13.551948  4.542876
Ni  0.882098  2.711731 10.000084
Ni  2.716965  0.927146  9.984314
Ni  2.697792  2.712115  8.180303
Ni  0.928179  6.312105 10.015644
Ni  2.766172  4.486339 10.030141
Ni  2.936517  6.287617  8.180482
Ni  0.923652  9.937295  9.878911
Ni  2.789751  8.132135  9.990081
Ni  2.739466  9.953069  8.143172
Ni  0.877692 13.580088  9.982489
Ni  2.748864 11.781431  9.956590
Ni  2.725984 13.608986  8.181508
Ni  4.484298  2.697862 13.605707
Ni  6.265995  0.900691 13.591345
Ni  6.283329  2.696682 11.806418
Ni  4.495291  0.892864 11.797196
Ni  8.076541  2.709022 13.534092
Ni  9.827695  0.817326 13.582611
Ni  9.841040  2.683183 11.728301
Ni  8.059370  0.867413 11.780840
Ni 11.665175  2.628132 13.549260
Ni 13.524599  0.848387 13.519302
Ni 11.632194  0.906114 11.747735
Ni  4.502725  6.317483 13.600969
Ni  6.299399  4.518326 13.583527
Ni  6.317139  6.330582 11.855864
Ni  4.530760  4.487321 11.836827
Ni  8.170952  6.286270 13.677927
Ni 11.654454  4.596625 11.742792
Ni  8.093138  4.551648 11.811080
Ni 11.671629  6.312539 13.588068
Ni 13.517877  6.337396 11.794212
Ni  4.457857  9.929466 13.618641
Ni  6.298789  8.127241 13.620028
Ni  4.492239  8.109439 11.845017
Ni  9.878553  8.227743 13.605617
Ni  8.047635  8.179174 11.817574
Ni 11.684531  9.935379 13.552478
Ni 13.540503  9.939691 11.703787
Ni  4.483671 13.568021 13.598073
Ni  6.216269 11.703439 13.588254
Ni  6.222240 13.575838 11.753596
Ni  4.486981 11.770818 11.797232
Ni  8.023320 11.675264 11.775787
Ni  9.899124 11.730952 13.536817
Ni  8.015865  9.961687  9.958498
Ni  9.860172 11.718337 10.002818
Ni 11.737873 13.548144 13.552707
Ni 11.724535 11.717749 11.709799
Ni 13.496097 11.746543  9.833312
Ni  4.508220  2.710257  2.717610
Ni  6.244867  2.709368  0.906846
Ni  4.466513  0.890451  0.930269
Ni  8.056410  2.684990  2.760878
Ni  9.886128  0.852136  2.704000
Ni  9.922304  2.701860  0.925309
Ni 11.695683  2.692466  2.691377
Ni 13.558589  0.892874  2.735475
Ni 11.658649  0.822704  0.906238
Ni  4.516180  6.355587  2.717536
Ni  6.303662  6.305809  0.931827
Ni  4.497273  4.521075  0.891186
Ni  8.074471  6.313811  2.715100
Ni  9.873593  4.510784  2.694609
Ni 11.628163  6.367056  2.766440
Ni 11.662516  4.538797  0.904528
Ni 13.486045  6.388580  0.889195
Ni 13.481573  4.533244 13.565937
Ni  4.480835  9.994372  2.689176
Ni  6.305915  8.127315  2.704452
Ni  6.243511  9.955229  0.947604
Ni  4.521439  8.133005  0.922121
Ni  8.049501  9.983132  2.711630
Ni  9.844088  8.233425  2.771078
Ni  8.069993  8.162158  0.934344
Ni 11.702223 11.723556  0.956789
Ni 11.678856  8.229043  0.980832
Ni 13.551122  9.902976  0.962299
Ni  6.273536 11.786032  2.707193
Ni  6.254976 13.597398  0.939959
Ni  4.479111 11.753957  0.898872
Ni  8.071778 13.608149  2.679568
Ni  9.862469 11.776554  2.750172
Ni  8.042850 11.775413  0.918538
Ni 13.576929 11.791462  2.798785
Ni 13.557921 13.520830  0.882861
Ni  4.480313  2.650124  6.355305
Ni  6.308149  0.871940  6.362029
Ni  4.469459  0.916659  4.479895
Ni  8.172564  2.689206  6.384897
Ni  8.075231  0.881100  8.160746
Ni  9.888645  2.684225  4.489307
Ni  8.061801  0.877253  4.515638
Ni 11.642523  0.854601  4.509943
Ni  6.324063  4.474829  6.383974
Ni  4.540101  4.473169  4.520113
Ni  9.797207  6.352370  4.510984
Ni 11.656785  8.124329  4.491750
Ni  8.091795  4.464546  4.462783
Ni  9.710955  6.409527  8.033358
Ni 11.660961  4.518549  4.512129
Ni 13.548912  6.330838  4.533487
Ni  4.462908  9.994892  6.319348
Ni  6.196393  8.193506  6.263348
Ni  6.287637  9.970672  4.475625
Ni  8.063562  9.965100  6.298385
Ni  9.855338 10.012364  4.540783
Ni  8.055713  8.213879  4.494187
Ni 11.728717  9.970203  6.314674
Ni 11.601341  6.330602  6.323635
Ni 13.567666  9.874617  4.583098
Ni  6.252602 13.566531  4.512703
Ni  4.468023 11.755267  4.538125
Ni  8.046904 13.527955  6.324743
Ni  9.858538 11.763294  6.290075
Ni  9.843462 13.525292  4.522281
Ni  8.049519 11.783758  4.477327
Ni 11.678621 13.563618  6.402315
Ni 13.536867 11.716304  6.486719
Ni 11.705963 11.812364  4.615519
Ni  4.505944  2.657809 10.021500
Ni  6.295584  0.882305  9.976970
Ni  6.346417  2.658537  8.168169
Ni  4.515804  0.931634  8.176179
Ni  8.044697  2.712511 10.007344
Ni  9.845486  0.885649  9.979934
Ni 11.615641  2.713996  6.365425
Ni  8.051126 13.541351  9.976459
Ni 11.641226  2.751446 10.008074
Ni 13.502276  0.933134  9.967396
Ni 13.496333  0.951214  6.404443
Ni 11.592847  0.944279  8.179369
Ni  6.253515  4.471675 10.001885
Ni  6.152710  6.306816  8.127626
Ni  9.806514  8.044546  9.917920
Ni  8.037421  4.509229  8.144044
Ni 11.689580  8.116134 11.706239
Ni 13.554548  4.514072  9.978022
Ni 13.589645  6.344482  8.138583
Ni 11.599215  4.552511  8.149713
Ni  4.473787  9.994632  9.979616
Ni  6.269424  8.127967  9.985966
Ni  6.277204 10.085316  8.141354
Ni  9.845692  9.838597  8.145305
Ni  9.840202  4.638876 10.022344
Ni 11.707427  9.893983  9.920005
Ni 13.561474  8.126114  9.968748
Ni 11.667279  8.112220  8.139205
Ni  4.465459 13.608171  9.946776
Ni  6.294103 13.523075  8.118733
Ni  4.461701 11.799777  8.101619
Ni  9.825588 13.597688  8.180919
Ni 11.660879 13.570532  9.886757
%ENDBLOCK POSITIONS_ABS

