#######################################################
#CASTEP cell file: /home/u2093113/Documents/kART/CASTEP/castep.cell
#Created using the Atomic Simulation Environment (ASE)#
#######################################################

%BLOCK LATTICE_CART
14.464828  0.000000  0.000000
 0.000000 14.464828  0.000000
 0.000000  0.000000 14.464828
%ENDBLOCK LATTICE_CART

%BLOCK POSITIONS_ABS
Al  1.019759  0.909515 11.785485
Al  0.946839  4.568616 11.813104
Al  0.968002  8.175486 11.711360
Al  1.006305 11.664648 11.665334
Al  0.932981  0.805031  0.890905
Al  0.989607  4.610110  0.821978
Al  1.015734  8.140726  0.896910
Al  0.935289 11.745688  0.996678
Al  1.027331  0.980248  4.544759
Al  1.066976  4.595109  4.515242
Al  1.070436  8.103337  4.554583
Al  0.923941 11.651253  4.596137
Al  1.003568  0.955024  8.170709
Al  1.040255  4.601633  8.248491
Al  1.081109  7.997205  8.219565
Al  1.027783 11.789536  8.161021
Al 11.480633 11.723504  8.146048
Al 13.444463 13.645483  8.153889
Al  7.902210 13.461201 13.495791
Al  8.227472 11.746613  8.154635
Al  7.891605  8.192832  8.091290
Al  9.939733 13.523668 11.695366
Al  6.184527 11.846367  9.954589
Al 13.486352  9.873414  8.216226
Al  9.866621  6.465866 11.855886
Al  7.935502  6.270689  9.961060
Al  4.554852  8.287658  8.175064
Al 11.767418  6.336793  9.866660
Al  9.828839  2.764049  8.319566
Al  4.545094  4.322521  8.198624
Al  4.532327  6.308070 10.144271
Al 13.492995 13.586113  4.710228
Al  6.271052 11.709212  6.256728
Al  4.408818 13.675139  6.337499
Al 13.395497  8.019062  6.289065
Al  9.903872  8.156230  6.243549
Al  4.469544  8.264717  4.427455
Al 13.374207  4.688236  6.354424
Al  9.735365  4.651725  6.274354
Al  6.610591  6.343238  4.668075
Al  4.466927  6.251241  6.299577
Al 13.367623  4.683247  2.706143
Al 13.323606  2.614413  4.547803
Al  9.856882  0.836848  6.288180
Al  6.314234  2.702629  4.714921
Al 13.397868 11.658655 13.607629
Al 11.748644 13.543202  2.742376
Al  9.906205 13.451483  0.874093
Al  4.353169 13.486598  2.722407
Al 11.747378 10.078174  2.883318
Al 13.477952  8.048393  2.746677
Al  9.904990 10.001988  0.970705
Al  8.067623  4.408329  0.902263
Al  9.956361  6.477565  0.981605
Al  6.184109  4.512786  2.675551
Al 13.379849  2.640624  0.820817
Al  8.091455  1.036448  0.871390
Al  6.247694  0.912094  2.729633
Al 13.380814 13.592103 11.640707
Al 13.374218  8.176660 13.552091
Al  9.927605  9.908129 11.671777
Al  7.993069  9.970377 13.650721
Al  6.148174  9.875476 11.770015
Al 13.388480  2.723242 11.783425
Al 13.344357  2.720560  8.240347
Al  9.973514  4.364575 13.502331
Ni  0.869574  2.702200 13.590140
Ni  2.700226  0.890757 13.591999
Ni  2.735262  2.716330 11.798627
Ni  0.854663  6.419086 13.573288
Ni  2.720944  4.512224 13.565104
Ni  2.704246  6.328130 11.839193
Ni  0.878975  9.957907 13.570107
Ni  2.730447  8.144180 13.585553
Ni  2.759175  9.935148 11.784569
Ni  0.809352 13.432873 13.440883
Ni  2.703664 11.750572 13.582961
Ni  2.727316 13.561815 11.778913
Ni  0.777811  2.861351  2.683874
Ni  2.671604  0.952250  2.700797
Ni  2.695623  2.713863  0.920281
Ni  0.913514  6.323995  2.694053
Ni  2.767013  4.530370  2.696472
Ni  2.749870  6.342564  0.911250
Ni  0.874409  9.854685  2.744664
Ni  2.741755  8.144392  2.686622
Ni  2.693408  9.959529  0.923701
Ni  0.887671 13.572548  2.808361
Ni  2.657952 11.711648  2.745268
Ni  2.675264 13.535324  0.875744
Ni  0.763182  2.859790  6.355195
Ni  2.677871  0.994935  6.353401
Ni  2.736456  2.751099  4.517048
Ni  0.980923  6.309808  6.331712
Ni  2.752862  4.468859  6.359880
Ni  2.794889  6.330997  4.491414
Ni  0.865497  9.828271  6.462156
Ni  2.803319  8.126798  6.367052
Ni  2.700174  9.963184  4.542348
Ni  0.896401 13.602400  6.375234
Ni  2.683710 11.752884  6.339472
Ni  2.669820 13.557821  4.548306
Ni  0.881147  2.711720 10.001349
Ni  2.717491  0.928893  9.982982
Ni  2.699636  2.716281  8.183367
Ni  0.923802  6.315172 10.019555
Ni  2.763933  4.486725 10.035743
Ni  2.915374  6.289508  8.205756
Ni  0.921473  9.943438  9.881197
Ni  2.785933  8.138164  9.995418
Ni  2.735790  9.959756  8.146912
Ni  0.877275 13.583601  9.980211
Ni  2.748974 11.785508  9.956369
Ni  2.728899 13.612926  8.180749
Ni  4.480086  2.694698 13.602965
Ni  6.266956  0.896488 13.587446
Ni  6.283307  2.695129 11.809317
Ni  4.495524  0.892332 11.796144
Ni  8.080499  2.704245 13.529093
Ni  9.830173  0.813807 13.582205
Ni  9.845492  2.679377 11.730271
Ni  8.061480  0.865431 11.779752
Ni 11.671877  2.624784 13.548610
Ni 13.527180  0.848251 13.520972
Ni 11.634000  0.905576 11.746184
Ni  4.499311  6.321581 13.598024
Ni  6.298577  4.517990 13.581780
Ni  6.318351  6.334882 11.860211
Ni  4.529445  4.488368 11.839239
Ni  8.175464  6.290241 13.677717
Ni 11.663559  4.597397 11.745485
Ni  8.094724  4.552838 11.816233
Ni 11.677646  6.315678 13.586726
Ni 13.520273  6.341865 11.797869
Ni  4.458863  9.933421 13.621989
Ni  6.297822  8.133748 13.619756
Ni  4.492135  8.114701 11.845714
Ni  9.881310  8.235671 13.605916
Ni  8.049192  8.185297 11.820175
Ni 11.687695  9.942551 13.554115
Ni 13.541541  9.946110 11.705412
Ni  4.483895 13.569731 13.598150
Ni  6.216077 11.707613 13.588379
Ni  6.224293 13.575257 11.750465
Ni  4.487724 11.774102 11.797102
Ni  8.023147 11.672915 11.771927
Ni  9.900099 11.737761 13.537074
Ni  8.017489  9.954997  9.950477
Ni  9.859517 11.717940 10.000345
Ni 11.740076 13.550382 13.553511
Ni 11.725940 11.722387 11.708628
Ni 13.494838 11.750379  9.831505
Ni  4.501889  2.707046  2.721673
Ni  6.244430  2.700992  0.893048
Ni  4.466086  0.890115  0.932072
Ni  8.063159  2.679747  2.749702
Ni  9.887333  0.855348  2.707821
Ni  9.929174  2.696526  0.917930
Ni 11.694208  2.695148  2.693877
Ni 13.558974  0.898405  2.741540
Ni 11.661538  0.822518  0.908598
Ni  4.550647  6.353624  2.739202
Ni  6.297764  6.306594  0.915276
Ni  4.484298  4.519314  0.877808
Ni  8.074372  6.303095  2.676248
Ni  9.877789  4.508527  2.681763
Ni 11.630324  6.369447  2.760023
Ni 11.666991  4.537508  0.900728
Ni 13.486852  6.390529  0.890984
Ni 13.486579  4.534133 13.567916
Ni  4.480478  9.997830  2.693733
Ni  6.309806  8.132198  2.716799
Ni  6.244641  9.959531  0.951043
Ni  4.525849  8.135977  0.928482
Ni  8.053311  9.990344  2.710224
Ni  9.845482  8.238827  2.759006
Ni  8.068322  8.166572  0.930679
Ni 11.704186 11.729332  0.959691
Ni 11.683463  8.236772  0.979082
Ni 13.553823  9.909700  0.965112
Ni  6.274507 11.787769  2.711063
Ni  6.256929 13.600593  0.942697
Ni  4.480706 11.757433  0.902532
Ni  8.071766 13.611876  2.685020
Ni  9.864338 11.779513  2.754939
Ni  8.043142 11.779931  0.921203
Ni 13.576586 11.795516  2.804250
Ni 13.559640 13.524082  0.888241
Ni  4.496085  2.672662  6.359381
Ni  6.312152  0.877611  6.365693
Ni  4.475088  0.924549  4.486946
Ni  8.173773  2.711646  6.391196
Ni  8.076305  0.887622  8.160772
Ni  9.884739  2.695375  4.493592
Ni  8.061526  0.885155  4.520738
Ni 11.638232  0.860818  4.514120
Ni  6.370092  4.545572  6.388234
Ni  4.587228  4.512389  4.526318
Ni  9.790968  6.353988  4.474796
Ni 11.650151  8.124459  4.490414
Ni  8.088390  4.460216  4.439096
Ni  9.745508  6.406815  8.093054
Ni 11.647121  4.524085  4.518201
Ni 13.545940  6.333064  4.533128
Ni  4.464716  9.992464  6.324662
Ni  6.190746  8.167400  6.255806
Ni  6.288810  9.972866  4.480434
Ni  8.064242  9.949688  6.303928
Ni  9.862344 10.012685  4.546839
Ni  8.080800  8.235678  4.490089
Ni 11.721715  9.964520  6.315417
Ni 11.583282  6.328335  6.321397
Ni 13.565006  9.875011  4.585656
Ni  6.254807 13.568986  4.515946
Ni  4.469795 11.756423  4.542617
Ni  8.046630 13.530419  6.326574
Ni  9.856081 11.762644  6.290770
Ni  9.841810 13.528640  4.526073
Ni  8.050883 11.782048  4.483026
Ni 11.673102 13.568481  6.403596
Ni 13.530867 11.719529  6.487478
Ni 11.706801 11.816149  4.619334
Ni  4.506716  2.659903 10.023632
Ni  6.296600  0.886343  9.975904
Ni  6.352598  2.673164  8.164409
Ni  4.520555  0.939862  8.175340
Ni  8.045974  2.711132 10.014305
Ni  9.845979  0.888372  9.977628
Ni 11.596712  2.734247  6.366992
Ni  8.051835 13.542850  9.974560
Ni 11.641336  2.752859 10.007280
Ni 13.501015  0.934963  9.963734
Ni 13.487564  0.961376  6.407002
Ni 11.588100  0.950512  8.176843
Ni  6.254836  4.471687 10.011069
Ni  6.140975  6.308067  8.144704
Ni  9.809351  8.058953  9.929998
Ni  8.040690  4.516555  8.177532
Ni 11.692493  8.123119 11.709636
Ni 13.553832  4.515228  9.978453
Ni 13.586990  6.347565  8.140512
Ni 11.595560  4.557841  8.149721
Ni  4.474539  9.998149  9.981081
Ni  6.272649  8.132957  9.985991
Ni  6.283632 10.070957  8.138284
Ni  9.842089  9.830970  8.141459
Ni  9.846353  4.634091 10.039477
Ni 11.706582  9.897830  9.920114
Ni 13.561661  8.131294  9.972320
Ni 11.669153  8.115298  8.141879
Ni  4.467578 13.610686  9.945214
Ni  6.296339 13.526294  8.119347
Ni  4.467123 11.798223  8.103376
Ni  9.824156 13.599299  8.179878
Ni 11.659978 13.572640  9.882829
%ENDBLOCK POSITIONS_ABS

