#######################################################
#CASTEP cell file: /home/u2093113/Documents/kART/CASTEP/castep.cell
#Created using the Atomic Simulation Environment (ASE)#
#######################################################

%BLOCK LATTICE_CART
14.464828  0.000000  0.000000
 0.000000 14.464828  0.000000
 0.000000  0.000000 14.464828
%ENDBLOCK LATTICE_CART

%BLOCK POSITIONS_ABS
Al  1.018846  0.909138 11.785619
Al  0.952557  4.565634 11.812308
Al  0.969393  8.164785 11.703561
Al  1.004727 11.654699 11.662999
Al  0.931094  0.803019  0.882069
Al  0.979424  4.604953  0.809844
Al  1.012757  8.135297  0.891801
Al  0.933361 11.736110  0.986582
Al  1.016511  0.955407  4.532132
Al  1.074799  4.595005  4.514329
Al  1.075900  8.096985  4.552277
Al  0.931691 11.636323  4.585891
Al  1.002731  0.945343  8.175558
Al  1.050328  4.604462  8.240016
Al  1.098637  7.984781  8.207507
Al  1.033393 11.776692  8.162436
Al 11.487755 11.724951  8.150745
Al 13.450531 13.636555  8.160397
Al  7.897741 13.463871 13.498288
Al  8.224579 11.749525  8.156139
Al  7.893385  8.269130  8.133834
Al  9.938138 13.521684 11.703166
Al  6.180315 11.848567  9.961264
Al 13.489880  9.866268  8.217503
Al  9.857884  6.454401 11.847305
Al  7.933192  6.258703  9.938320
Al  4.567656  8.276068  8.160392
Al 11.757335  6.330080  9.851413
Al  9.831845  2.739971  8.325057
Al  4.538027  4.317581  8.187511
Al  4.529608  6.301890 10.131648
Al 13.495918 13.566915  4.698841
Al  6.264768 11.713468  6.249285
Al  4.398800 13.670951  6.330855
Al 13.410127  8.023671  6.288804
Al  9.932679  8.221038  6.240299
Al  4.521256  8.235794  4.403706
Al 13.383040  4.674674  6.353304
Al  9.874930  4.523997  6.259182
Al  7.718054  6.304345  6.054094
Al  4.605993  6.228083  6.189372
Al 13.376494  4.683429  2.698529
Al 13.335785  2.603553  4.536180
Al  9.866343  0.819128  6.283034
Al  6.299738  2.679348  4.680327
Al 13.392770 11.647041 13.603859
Al 11.748368 13.534573  2.731661
Al  9.904244 13.447828  0.865394
Al  4.346325 13.479066  2.711352
Al 11.747958 10.070136  2.879921
Al 13.479699  8.040700  2.744040
Al  9.900391  9.985706  0.974867
Al  8.031940  4.421501  0.947883
Al  9.932051  6.469274  1.005959
Al  6.198646  4.661001  2.833679
Al 13.375268  2.639094  0.813930
Al  8.089450  1.042127  0.875398
Al  6.243455  0.896390  2.718867
Al 13.379524 13.586516 11.644602
Al 13.368875  8.165307 13.546626
Al  9.924395  9.890141 11.662346
Al  7.993584  9.957291 13.647275
Al  6.146700  9.868212 11.769331
Al 13.384481  2.726151 11.786224
Al 13.352667  2.712009  8.245002
Al  9.951996  4.367609 13.517210
Ni  0.869566  2.701225 13.586863
Ni  2.702700  0.892165 13.589140
Ni  2.738352  2.717431 11.797829
Ni  0.850693  6.414132 13.565256
Ni  2.731446  4.507945 13.571410
Ni  2.709892  6.319856 11.837992
Ni  0.875296  9.947835 13.564165
Ni  2.726595  8.136602 13.578251
Ni  2.758511  9.925167 11.779233
Ni  0.807292 13.428773 13.435600
Ni  2.701302 11.742443 13.577012
Ni  2.727479 13.557760 11.779762
Ni  0.771762  2.853785  2.675289
Ni  2.672174  0.948118  2.688609
Ni  2.700518  2.713529  0.916744
Ni  0.915868  6.321730  2.693616
Ni  2.745536  4.515513  2.681506
Ni  2.733006  6.335861  0.894387
Ni  0.872840  9.848800  2.738252
Ni  2.736652  8.149053  2.685288
Ni  2.690596  9.952387  0.915135
Ni  0.889573 13.562317  2.791814
Ni  2.658046 11.699796  2.735385
Ni  2.672031 13.530049  0.866541
Ni  0.766789  2.852751  6.351553
Ni  2.655763  0.970259  6.349466
Ni  2.704854  2.721580  4.507139
Ni  0.987513  6.309573  6.326832
Ni  2.763382  4.472733  6.353562
Ni  2.813287  6.329232  4.495176
Ni  0.878336  9.813776  6.456012
Ni  2.840098  8.103619  6.346511
Ni  2.714731  9.945856  4.532694
Ni  0.896122 13.583626  6.373308
Ni  2.679985 11.744734  6.332772
Ni  2.662711 13.546075  4.537445
Ni  0.883049  2.711742  9.998818
Ni  2.716439  0.925399  9.985646
Ni  2.695947  2.707950  8.177240
Ni  0.932557  6.309038 10.011734
Ni  2.768411  4.485953 10.024539
Ni  2.957660  6.285726  8.155209
Ni  0.925830  9.931152  9.876624
Ni  2.793569  8.126106  9.984744
Ni  2.743141  9.946381  8.139431
Ni  0.878109 13.576574  9.984767
Ni  2.748753 11.777354  9.956811
Ni  2.723068 13.605045  8.182267
Ni  4.488509  2.701026 13.608449
Ni  6.265035  0.904895 13.595245
Ni  6.283350  2.698234 11.803519
Ni  4.495058  0.893396 11.798248
Ni  8.072582  2.713800 13.539091
Ni  9.825216  0.820845 13.583017
Ni  9.836588  2.686989 11.726332
Ni  8.057261  0.869396 11.781928
Ni 11.658473  2.631480 13.549911
Ni 13.522019  0.848524 13.517633
Ni 11.630388  0.906652 11.749285
Ni  4.506140  6.313385 13.603915
Ni  6.300220  4.518661 13.585274
Ni  6.315926  6.326282 11.851518
Ni  4.532076  4.486274 11.834415
Ni  8.166440  6.282299 13.678138
Ni 11.645349  4.595854 11.740100
Ni  8.091553  4.550457 11.805928
Ni 11.665613  6.309401 13.589411
Ni 13.515480  6.332926 11.790554
Ni  4.456850  9.925511 13.615293
Ni  6.299757  8.120735 13.620300
Ni  4.492343  8.104176 11.844321
Ni  9.875797  8.219815 13.605317
Ni  8.046077  8.173050 11.814974
Ni 11.681366  9.928206 13.550841
Ni 13.539465  9.933273 11.702162
Ni  4.483448 13.566311 13.597995
Ni  6.216462 11.699265 13.588128
Ni  6.220188 13.576418 11.756726
Ni  4.486237 11.767535 11.797361
Ni  8.023493 11.677613 11.779648
Ni  9.898148 11.724143 13.536559
Ni  8.014242  9.968377  9.966518
Ni  9.860827 11.718735 10.005292
Ni 11.735670 13.545907 13.551903
Ni 11.723130 11.713112 11.710971
Ni 13.497356 11.742707  9.835120
Ni  4.514551  2.713468  2.713546
Ni  6.245303  2.717743  0.920645
Ni  4.466941  0.890788  0.928465
Ni  8.049661  2.690233  2.772054
Ni  9.884922  0.848925  2.700179
Ni  9.915435  2.707193  0.932689
Ni 11.697158  2.689783  2.688876
Ni 13.558204  0.887342  2.729410
Ni 11.655761  0.822890  0.903877
Ni  4.481713  6.357550  2.695871
Ni  6.309560  6.305024  0.948378
Ni  4.510247  4.522835  0.904563
Ni  8.074570  6.324527  2.753952
Ni  9.869396  4.513041  2.707456
Ni 11.626003  6.364666  2.772857
Ni 11.658041  4.540085  0.908329
Ni 13.485239  6.386631  0.887405
Ni 13.476567  4.532355 13.563959
Ni  4.481191  9.990914  2.684619
Ni  6.302024  8.122431  2.692105
Ni  6.242382  9.950928  0.944165
Ni  4.517029  8.130034  0.915760
Ni  8.045691  9.975919  2.713037
Ni  9.842695  8.228024  2.783150
Ni  8.071664  8.157743  0.938009
Ni 11.700259 11.717780  0.953886
Ni 11.674249  8.221314  0.982583
Ni 13.548422  9.896251  0.959486
Ni  6.272565 11.784296  2.703322
Ni  6.253023 13.594204  0.937222
Ni  4.477517 11.750481  0.895212
Ni  8.071790 13.604422  2.674116
Ni  9.860599 11.773596  2.745405
Ni  8.042558 11.770895  0.915873
Ni 13.577272 11.787408  2.793319
Ni 13.556203 13.517578  0.877480
Ni  4.464541  2.627586  6.351230
Ni  6.304146  0.866270  6.358366
Ni  4.463830  0.908770  4.472845
Ni  8.171356  2.666767  6.378598
Ni  8.074157  0.874579  8.160719
Ni  9.892551  2.673075  4.485021
Ni  8.062077  0.869351  4.510537
Ni 11.646813  0.848384  4.505767
Ni  6.278035  4.404085  6.379714
Ni  4.492974  4.433949  4.513907
Ni  9.803445  6.350752  4.547171
Ni 11.663420  8.124200  4.493085
Ni  8.095200  4.468875  4.486470
Ni  9.676401  6.412238  7.973663
Ni 11.674801  4.513012  4.506058
Ni 13.551885  6.328612  4.533847
Ni  4.461101  9.997321  6.314033
Ni  6.202041  8.219613  6.270890
Ni  6.286465  9.968478  4.470816
Ni  8.062882  9.980512  6.292842
Ni  9.848333 10.012044  4.534727
Ni  8.030626  8.192080  4.498285
Ni 11.735719  9.975886  6.313930
Ni 11.619399  6.332869  6.325873
Ni 13.570326  9.874224  4.580541
Ni  6.250397 13.564076  4.509460
Ni  4.466251 11.754112  4.533634
Ni  8.047179 13.525490  6.322911
Ni  9.860994 11.763944  6.289380
Ni  9.845114 13.521944  4.518490
Ni  8.048155 11.785467  4.471627
Ni 11.684139 13.558755  6.401035
Ni 13.542867 11.713079  6.485961
Ni 11.705125 11.808579  4.611704
Ni  4.505173  2.655716 10.019369
Ni  6.294569  0.878267  9.978036
Ni  6.340236  2.643910  8.171928
Ni  4.511054  0.923407  8.177017
Ni  8.043421  2.713891 10.000384
Ni  9.844992  0.882927  9.982240
Ni 11.634569  2.693745  6.363859
Ni  8.050418 13.539852  9.978357
Ni 11.641116  2.750034 10.008867
Ni 13.503536  0.931305  9.971058
Ni 13.505102  0.941051  6.401883
Ni 11.597594  0.938047  8.181894
Ni  6.252193  4.471663  9.992701
Ni  6.164445  6.305564  8.110547
Ni  9.803678  8.030140  9.905841
Ni  8.034151  4.501903  8.110555
Ni 11.686668  8.109150 11.702842
Ni 13.555264  4.512915  9.977591
Ni 13.592299  6.341398  8.136655
Ni 11.602870  4.547181  8.149705
Ni  4.473035  9.991115  9.978150
Ni  6.266199  8.122977  9.985940
Ni  6.270776 10.099675  8.144425
Ni  9.849295  9.846224  8.149152
Ni  9.834050  4.643661 10.005212
Ni 11.708271  9.890136  9.919896
Ni 13.561286  8.120933  9.965177
Ni 11.665405  8.109142  8.136531
Ni  4.463341 13.605656  9.948338
Ni  6.291866 13.519856  8.118120
Ni  4.456279 11.801330  8.099863
Ni  9.827020 13.596077  8.181961
Ni 11.661780 13.568424  9.890685
%ENDBLOCK POSITIONS_ABS

