%block lattice_abc 
  14.46482773 14.46482773 14.46482773 #lattice params 
 90.0  90.0  90.0 
     %endblock lattice_abc 
     fix_all_cell : true 
     %BLOCK POSITIONS_ABS 
Al  1.018846  0.909138 11.785619
 Al  0.952557  4.565634 11.812308
 Al  0.969393  8.164785 11.703561
 Al  1.004727 11.654699 11.662999
 Al  0.931094  0.803019  0.882069
 Al  0.979424  4.604953  0.809844
 Al  1.012757  8.135297  0.891801
 Al  0.933361 11.736110  0.986582
 Al  1.016511  0.955407  4.532132
 Al  1.074799  4.595005  4.514329
 Al  1.075900  8.096985  4.552277
 Al  0.931691 11.636323  4.585891
 Al  1.002731  0.945343  8.175558
 Al  1.050328  4.604462  8.240016
 Al  1.098637  7.984781  8.207507
 Al  1.033393 11.776692  8.162436
 Al 11.487755 11.724951  8.150745
 Al 13.450531 13.636555  8.160397
 Al  7.897741 13.463871 13.498288
 Al  8.224579 11.749525  8.156139
 Al  7.893385  8.269130  8.133834
 Al  9.938138 13.521684 11.703166
 Al  6.180315 11.848567  9.961264
 Al 13.489880  9.866268  8.217503
 Al  9.857884  6.454401 11.847305
 Al  7.933192  6.258703  9.938320
 Al  4.567656  8.276068  8.160392
 Al 11.757335  6.330080  9.851413
 Al  9.831845  2.739971  8.325057
 Al  4.538027  4.317581  8.187511
 Al  4.529608  6.301890 10.131648
 Al 13.495918 13.566915  4.698841
 Al  6.264768 11.713468  6.249285
 Al  4.398800 13.670951  6.330855
 Al 13.410127  8.023671  6.288804
 Al  9.932679  8.221038  6.240299
 Al  4.521256  8.235794  4.403706
 Al 13.383040  4.674674  6.353304
 Al  9.874930  4.523997  6.259182
 Al  7.718054  6.304345  6.054094
 Al  4.605993  6.228083  6.189372
 Al 13.376494  4.683429  2.698529
 Al 13.335785  2.603553  4.536180
 Al  9.866343  0.819128  6.283034
 Al  6.299738  2.679348  4.680327
 Al 13.392770 11.647041 13.603859
 Al 11.748368 13.534573  2.731661
 Al  9.904244 13.447828  0.865394
 Al  4.346325 13.479066  2.711352
 Al 11.747958 10.070136  2.879921
 Al 13.479699  8.040700  2.744040
 Al  9.900391  9.985706  0.974867
 Al  8.031940  4.421501  0.947883
 Al  9.932051  6.469274  1.005959
 Al  6.198646  4.661001  2.833679
 Al 13.375268  2.639094  0.813930
 Al  8.089450  1.042127  0.875398
 Al  6.243455  0.896390  2.718867
 Al 13.379524 13.586516 11.644602
 Al 13.368875  8.165307 13.546626
 Al  9.924395  9.890141 11.662346
 Al  7.993584  9.957291 13.647275
 Al  6.146700  9.868212 11.769331
 Al 13.384481  2.726151 11.786224
 Al 13.352667  2.712009  8.245002
 Al  9.951996  4.367609 13.517210
 Ni  0.869566  2.701225 13.586863
 Ni  2.702700  0.892165 13.589140
 Ni  2.738352  2.717431 11.797829
 Ni  0.850693  6.414132 13.565256
 Ni  2.731446  4.507945 13.571410
 Ni  2.709892  6.319856 11.837992
 Ni  0.875296  9.947835 13.564165
 Ni  2.726595  8.136602 13.578251
 Ni  2.758511  9.925167 11.779233
 Ni  0.807292 13.428773 13.435600
 Ni  2.701302 11.742443 13.577012
 Ni  2.727479 13.557760 11.779762
 Ni  0.771762  2.853785  2.675289
 Ni  2.672174  0.948118  2.688609
 Ni  2.700518  2.713529  0.916744
 Ni  0.915868  6.321730  2.693616
 Ni  2.745536  4.515513  2.681506
 Ni  2.733006  6.335861  0.894387
 Ni  0.872840  9.848800  2.738252
 Ni  2.736652  8.149053  2.685288
 Ni  2.690596  9.952387  0.915135
 Ni  0.889573 13.562317  2.791814
 Ni  2.658046 11.699796  2.735385
 Ni  2.672031 13.530049  0.866541
 Ni  0.766789  2.852751  6.351553
 Ni  2.655763  0.970259  6.349466
 Ni  2.704854  2.721580  4.507139
 Ni  0.987513  6.309573  6.326832
 Ni  2.763382  4.472733  6.353562
 Ni  2.813287  6.329232  4.495176
 Ni  0.878336  9.813776  6.456012
 Ni  2.840098  8.103619  6.346511
 Ni  2.714731  9.945856  4.532694
 Ni  0.896122 13.583626  6.373308
 Ni  2.679985 11.744734  6.332772
 Ni  2.662711 13.546075  4.537445
 Ni  0.883049  2.711742  9.998818
 Ni  2.716439  0.925399  9.985646
 Ni  2.695947  2.707950  8.177240
 Ni  0.932557  6.309038 10.011734
 Ni  2.768411  4.485953 10.024539
 Ni  2.957660  6.285726  8.155209
 Ni  0.925830  9.931152  9.876624
 Ni  2.793569  8.126106  9.984744
 Ni  2.743141  9.946381  8.139431
 Ni  0.878109 13.576574  9.984767
 Ni  2.748753 11.777354  9.956811
 Ni  2.723068 13.605045  8.182267
 Ni  4.488509  2.701026 13.608449
 Ni  6.265035  0.904895 13.595245
 Ni  6.283350  2.698234 11.803519
 Ni  4.495058  0.893396 11.798248
 Ni  8.072582  2.713800 13.539091
 Ni  9.825216  0.820845 13.583017
 Ni  9.836588  2.686989 11.726332
 Ni  8.057261  0.869396 11.781928
 Ni 11.658473  2.631480 13.549911
 Ni 13.522019  0.848524 13.517633
 Ni 11.630388  0.906652 11.749285
 Ni  4.506140  6.313385 13.603915
 Ni  6.300220  4.518661 13.585274
 Ni  6.315926  6.326282 11.851518
 Ni  4.532076  4.486274 11.834415
 Ni  8.166440  6.282299 13.678138
 Ni 11.645349  4.595854 11.740100
 Ni  8.091553  4.550457 11.805928
 Ni 11.665613  6.309401 13.589411
 Ni 13.515480  6.332926 11.790554
 Ni  4.456850  9.925511 13.615293
 Ni  6.299757  8.120735 13.620300
 Ni  4.492343  8.104176 11.844321
 Ni  9.875797  8.219815 13.605317
 Ni  8.046077  8.173050 11.814974
 Ni 11.681366  9.928206 13.550841
 Ni 13.539465  9.933273 11.702162
 Ni  4.483448 13.566311 13.597995
 Ni  6.216462 11.699265 13.588128
 Ni  6.220188 13.576418 11.756726
 Ni  4.486237 11.767535 11.797361
 Ni  8.023493 11.677613 11.779648
 Ni  9.898148 11.724143 13.536559
 Ni  8.014242  9.968377  9.966518
 Ni  9.860827 11.718735 10.005292
 Ni 11.735670 13.545907 13.551903
 Ni 11.723130 11.713112 11.710971
 Ni 13.497356 11.742707  9.835120
 Ni  4.514551  2.713468  2.713546
 Ni  6.245303  2.717743  0.920645
 Ni  4.466941  0.890788  0.928465
 Ni  8.049661  2.690233  2.772054
 Ni  9.884922  0.848925  2.700179
 Ni  9.915435  2.707193  0.932689
 Ni 11.697158  2.689783  2.688876
 Ni 13.558204  0.887342  2.729410
 Ni 11.655761  0.822890  0.903877
 Ni  4.481713  6.357550  2.695871
 Ni  6.309560  6.305024  0.948378
 Ni  4.510247  4.522835  0.904563
 Ni  8.074570  6.324527  2.753952
 Ni  9.869396  4.513041  2.707456
 Ni 11.626003  6.364666  2.772857
 Ni 11.658041  4.540085  0.908329
 Ni 13.485239  6.386631  0.887405
 Ni 13.476567  4.532355 13.563959
 Ni  4.481191  9.990914  2.684619
 Ni  6.302024  8.122431  2.692105
 Ni  6.242382  9.950928  0.944165
 Ni  4.517029  8.130034  0.915760
 Ni  8.045691  9.975919  2.713037
 Ni  9.842695  8.228024  2.783150
 Ni  8.071664  8.157743  0.938009
 Ni 11.700259 11.717780  0.953886
 Ni 11.674249  8.221314  0.982583
 Ni 13.548422  9.896251  0.959486
 Ni  6.272565 11.784296  2.703322
 Ni  6.253023 13.594204  0.937222
 Ni  4.477517 11.750481  0.895212
 Ni  8.071790 13.604422  2.674116
 Ni  9.860599 11.773596  2.745405
 Ni  8.042558 11.770895  0.915873
 Ni 13.577272 11.787408  2.793319
 Ni 13.556203 13.517578  0.877480
 Ni  4.464541  2.627586  6.351230
 Ni  6.304146  0.866270  6.358366
 Ni  4.463830  0.908770  4.472845
 Ni  8.171356  2.666767  6.378598
 Ni  8.074157  0.874579  8.160719
 Ni  9.892551  2.673075  4.485021
 Ni  8.062077  0.869351  4.510537
 Ni 11.646813  0.848384  4.505767
 Ni  6.278035  4.404085  6.379714
 Ni  4.492974  4.433949  4.513907
 Ni  9.803445  6.350752  4.547171
 Ni 11.663420  8.124200  4.493085
 Ni  8.095200  4.468875  4.486470
 Ni  9.676401  6.412238  7.973663
 Ni 11.674801  4.513012  4.506058
 Ni 13.551885  6.328612  4.533847
 Ni  4.461101  9.997321  6.314033
 Ni  6.202041  8.219613  6.270890
 Ni  6.286465  9.968478  4.470816
 Ni  8.062882  9.980512  6.292842
 Ni  9.848333 10.012044  4.534727
 Ni  8.030626  8.192080  4.498285
 Ni 11.735719  9.975886  6.313930
 Ni 11.619399  6.332869  6.325873
 Ni 13.570326  9.874224  4.580541
 Ni  6.250397 13.564076  4.509460
 Ni  4.466251 11.754112  4.533634
 Ni  8.047179 13.525490  6.322911
 Ni  9.860994 11.763944  6.289380
 Ni  9.845114 13.521944  4.518490
 Ni  8.048155 11.785467  4.471627
 Ni 11.684139 13.558755  6.401035
 Ni 13.542867 11.713079  6.485961
 Ni 11.705125 11.808579  4.611704
 Ni  4.505173  2.655716 10.019369
 Ni  6.294569  0.878267  9.978036
 Ni  6.340236  2.643910  8.171928
 Ni  4.511054  0.923407  8.177017
 Ni  8.043421  2.713891 10.000384
 Ni  9.844992  0.882927  9.982240
 Ni 11.634569  2.693745  6.363859
 Ni  8.050418 13.539852  9.978357
 Ni 11.641116  2.750034 10.008867
 Ni 13.503536  0.931305  9.971058
 Ni 13.505102  0.941051  6.401883
 Ni 11.597594  0.938047  8.181894
 Ni  6.252193  4.471663  9.992701
 Ni  6.164445  6.305564  8.110547
 Ni  9.803678  8.030140  9.905841
 Ni  8.034151  4.501903  8.110555
 Ni 11.686668  8.109150 11.702842
 Ni 13.555264  4.512915  9.977591
 Ni 13.592299  6.341398  8.136655
 Ni 11.602870  4.547181  8.149705
 Ni  4.473035  9.991115  9.978150
 Ni  6.266199  8.122977  9.985940
 Ni  6.270776 10.099675  8.144425
 Ni  9.849295  9.846224  8.149152
 Ni  9.834050  4.643661 10.005212
 Ni 11.708271  9.890136  9.919896
 Ni 13.561286  8.120933  9.965177
 Ni 11.665405  8.109142  8.136531
 Ni  4.463341 13.605656  9.948338
 Ni  6.291866 13.519856  8.118120
 Ni  4.456279 11.801330  8.099863
 Ni  9.827020 13.596077  8.181961
 Ni 11.661780 13.568424  9.890685
 %ENDBLOCK POSITIONS_ABS
 
%block positions_abs_product 
     ang 
Al  1.019759  0.909515 11.785485
 Al  0.946839  4.568616 11.813104
 Al  0.968002  8.175486 11.711360
 Al  1.006305 11.664648 11.665334
 Al  0.932981  0.805031  0.890905
 Al  0.989607  4.610110  0.821978
 Al  1.015734  8.140726  0.896910
 Al  0.935289 11.745688  0.996678
 Al  1.027331  0.980248  4.544759
 Al  1.066976  4.595109  4.515242
 Al  1.070436  8.103337  4.554583
 Al  0.923941 11.651253  4.596137
 Al  1.003568  0.955024  8.170709
 Al  1.040255  4.601633  8.248491
 Al  1.081109  7.997205  8.219565
 Al  1.027783 11.789536  8.161021
 Al 11.480633 11.723504  8.146048
 Al 13.444463 13.645483  8.153889
 Al  7.902210 13.461201 13.495791
 Al  8.227472 11.746613  8.154635
 Al  7.891605  8.192832  8.091290
 Al  9.939733 13.523668 11.695366
 Al  6.184527 11.846367  9.954589
 Al 13.486352  9.873414  8.216226
 Al  9.866621  6.465866 11.855886
 Al  7.935502  6.270689  9.961060
 Al  4.554852  8.287658  8.175064
 Al 11.767418  6.336793  9.866660
 Al  9.828839  2.764049  8.319566
 Al  4.545094  4.322521  8.198624
 Al  4.532327  6.308070 10.144271
 Al 13.492995 13.586113  4.710228
 Al  6.271052 11.709212  6.256728
 Al  4.408818 13.675139  6.337499
 Al 13.395497  8.019062  6.289065
 Al  9.903872  8.156230  6.243549
 Al  4.469544  8.264717  4.427455
 Al 13.374207  4.688236  6.354424
 Al  9.735365  4.651725  6.274354
 Al  6.610591  6.343238  4.668075
 Al  4.466927  6.251241  6.299577
 Al 13.367623  4.683247  2.706143
 Al 13.323606  2.614413  4.547803
 Al  9.856882  0.836848  6.288180
 Al  6.314234  2.702629  4.714921
 Al 13.397868 11.658655 13.607629
 Al 11.748644 13.543202  2.742376
 Al  9.906205 13.451483  0.874093
 Al  4.353169 13.486598  2.722407
 Al 11.747378 10.078174  2.883318
 Al 13.477952  8.048393  2.746677
 Al  9.904990 10.001988  0.970705
 Al  8.067623  4.408329  0.902263
 Al  9.956361  6.477565  0.981605
 Al  6.184109  4.512786  2.675551
 Al 13.379849  2.640624  0.820817
 Al  8.091455  1.036448  0.871390
 Al  6.247694  0.912094  2.729633
 Al 13.380814 13.592103 11.640707
 Al 13.374218  8.176660 13.552091
 Al  9.927605  9.908129 11.671777
 Al  7.993069  9.970377 13.650721
 Al  6.148174  9.875476 11.770015
 Al 13.388480  2.723242 11.783425
 Al 13.344357  2.720560  8.240347
 Al  9.973514  4.364575 13.502331
 Ni  0.869574  2.702200 13.590140
 Ni  2.700226  0.890757 13.591999
 Ni  2.735262  2.716330 11.798627
 Ni  0.854663  6.419086 13.573288
 Ni  2.720944  4.512224 13.565104
 Ni  2.704246  6.328130 11.839193
 Ni  0.878975  9.957907 13.570107
 Ni  2.730447  8.144180 13.585553
 Ni  2.759175  9.935148 11.784569
 Ni  0.809352 13.432873 13.440883
 Ni  2.703664 11.750572 13.582961
 Ni  2.727316 13.561815 11.778913
 Ni  0.777811  2.861351  2.683874
 Ni  2.671604  0.952250  2.700797
 Ni  2.695623  2.713863  0.920281
 Ni  0.913514  6.323995  2.694053
 Ni  2.767013  4.530370  2.696472
 Ni  2.749870  6.342564  0.911250
 Ni  0.874409  9.854685  2.744664
 Ni  2.741755  8.144392  2.686622
 Ni  2.693408  9.959529  0.923701
 Ni  0.887671 13.572548  2.808361
 Ni  2.657952 11.711648  2.745268
 Ni  2.675264 13.535324  0.875744
 Ni  0.763182  2.859790  6.355195
 Ni  2.677871  0.994935  6.353401
 Ni  2.736456  2.751099  4.517048
 Ni  0.980923  6.309808  6.331712
 Ni  2.752862  4.468859  6.359880
 Ni  2.794889  6.330997  4.491414
 Ni  0.865497  9.828271  6.462156
 Ni  2.803319  8.126798  6.367052
 Ni  2.700174  9.963184  4.542348
 Ni  0.896401 13.602400  6.375234
 Ni  2.683710 11.752884  6.339472
 Ni  2.669820 13.557821  4.548306
 Ni  0.881147  2.711720 10.001349
 Ni  2.717491  0.928893  9.982982
 Ni  2.699636  2.716281  8.183367
 Ni  0.923802  6.315172 10.019555
 Ni  2.763933  4.486725 10.035743
 Ni  2.915374  6.289508  8.205756
 Ni  0.921473  9.943438  9.881197
 Ni  2.785933  8.138164  9.995418
 Ni  2.735790  9.959756  8.146912
 Ni  0.877275 13.583601  9.980211
 Ni  2.748974 11.785508  9.956369
 Ni  2.728899 13.612926  8.180749
 Ni  4.480086  2.694698 13.602965
 Ni  6.266956  0.896488 13.587446
 Ni  6.283307  2.695129 11.809317
 Ni  4.495524  0.892332 11.796144
 Ni  8.080499  2.704245 13.529093
 Ni  9.830173  0.813807 13.582205
 Ni  9.845492  2.679377 11.730271
 Ni  8.061480  0.865431 11.779752
 Ni 11.671877  2.624784 13.548610
 Ni 13.527180  0.848251 13.520972
 Ni 11.634000  0.905576 11.746184
 Ni  4.499311  6.321581 13.598024
 Ni  6.298577  4.517990 13.581780
 Ni  6.318351  6.334882 11.860211
 Ni  4.529445  4.488368 11.839239
 Ni  8.175464  6.290241 13.677717
 Ni 11.663559  4.597397 11.745485
 Ni  8.094724  4.552838 11.816233
 Ni 11.677646  6.315678 13.586726
 Ni 13.520273  6.341865 11.797869
 Ni  4.458863  9.933421 13.621989
 Ni  6.297822  8.133748 13.619756
 Ni  4.492135  8.114701 11.845714
 Ni  9.881310  8.235671 13.605916
 Ni  8.049192  8.185297 11.820175
 Ni 11.687695  9.942551 13.554115
 Ni 13.541541  9.946110 11.705412
 Ni  4.483895 13.569731 13.598150
 Ni  6.216077 11.707613 13.588379
 Ni  6.224293 13.575257 11.750465
 Ni  4.487724 11.774102 11.797102
 Ni  8.023147 11.672915 11.771927
 Ni  9.900099 11.737761 13.537074
 Ni  8.017489  9.954997  9.950477
 Ni  9.859517 11.717940 10.000345
 Ni 11.740076 13.550382 13.553511
 Ni 11.725940 11.722387 11.708628
 Ni 13.494838 11.750379  9.831505
 Ni  4.501889  2.707046  2.721673
 Ni  6.244430  2.700992  0.893048
 Ni  4.466086  0.890115  0.932072
 Ni  8.063159  2.679747  2.749702
 Ni  9.887333  0.855348  2.707821
 Ni  9.929174  2.696526  0.917930
 Ni 11.694208  2.695148  2.693877
 Ni 13.558974  0.898405  2.741540
 Ni 11.661538  0.822518  0.908598
 Ni  4.550647  6.353624  2.739202
 Ni  6.297764  6.306594  0.915276
 Ni  4.484298  4.519314  0.877808
 Ni  8.074372  6.303095  2.676248
 Ni  9.877789  4.508527  2.681763
 Ni 11.630324  6.369447  2.760023
 Ni 11.666991  4.537508  0.900728
 Ni 13.486852  6.390529  0.890984
 Ni 13.486579  4.534133 13.567916
 Ni  4.480478  9.997830  2.693733
 Ni  6.309806  8.132198  2.716799
 Ni  6.244641  9.959531  0.951043
 Ni  4.525849  8.135977  0.928482
 Ni  8.053311  9.990344  2.710224
 Ni  9.845482  8.238827  2.759006
 Ni  8.068322  8.166572  0.930679
 Ni 11.704186 11.729332  0.959691
 Ni 11.683463  8.236772  0.979082
 Ni 13.553823  9.909700  0.965112
 Ni  6.274507 11.787769  2.711063
 Ni  6.256929 13.600593  0.942697
 Ni  4.480706 11.757433  0.902532
 Ni  8.071766 13.611876  2.685020
 Ni  9.864338 11.779513  2.754939
 Ni  8.043142 11.779931  0.921203
 Ni 13.576586 11.795516  2.804250
 Ni 13.559640 13.524082  0.888241
 Ni  4.496085  2.672662  6.359381
 Ni  6.312152  0.877611  6.365693
 Ni  4.475088  0.924549  4.486946
 Ni  8.173773  2.711646  6.391196
 Ni  8.076305  0.887622  8.160772
 Ni  9.884739  2.695375  4.493592
 Ni  8.061526  0.885155  4.520738
 Ni 11.638232  0.860818  4.514120
 Ni  6.370092  4.545572  6.388234
 Ni  4.587228  4.512389  4.526318
 Ni  9.790968  6.353988  4.474796
 Ni 11.650151  8.124459  4.490414
 Ni  8.088390  4.460216  4.439096
 Ni  9.745508  6.406815  8.093054
 Ni 11.647121  4.524085  4.518201
 Ni 13.545940  6.333064  4.533128
 Ni  4.464716  9.992464  6.324662
 Ni  6.190746  8.167400  6.255806
 Ni  6.288810  9.972866  4.480434
 Ni  8.064242  9.949688  6.303928
 Ni  9.862344 10.012685  4.546839
 Ni  8.080800  8.235678  4.490089
 Ni 11.721715  9.964520  6.315417
 Ni 11.583282  6.328335  6.321397
 Ni 13.565006  9.875011  4.585656
 Ni  6.254807 13.568986  4.515946
 Ni  4.469795 11.756423  4.542617
 Ni  8.046630 13.530419  6.326574
 Ni  9.856081 11.762644  6.290770
 Ni  9.841810 13.528640  4.526073
 Ni  8.050883 11.782048  4.483026
 Ni 11.673102 13.568481  6.403596
 Ni 13.530867 11.719529  6.487478
 Ni 11.706801 11.816149  4.619334
 Ni  4.506716  2.659903 10.023632
 Ni  6.296600  0.886343  9.975904
 Ni  6.352598  2.673164  8.164409
 Ni  4.520555  0.939862  8.175340
 Ni  8.045974  2.711132 10.014305
 Ni  9.845979  0.888372  9.977628
 Ni 11.596712  2.734247  6.366992
 Ni  8.051835 13.542850  9.974560
 Ni 11.641336  2.752859 10.007280
 Ni 13.501015  0.934963  9.963734
 Ni 13.487564  0.961376  6.407002
 Ni 11.588100  0.950512  8.176843
 Ni  6.254836  4.471687 10.011069
 Ni  6.140975  6.308067  8.144704
 Ni  9.809351  8.058953  9.929998
 Ni  8.040690  4.516555  8.177532
 Ni 11.692493  8.123119 11.709636
 Ni 13.553832  4.515228  9.978453
 Ni 13.586990  6.347565  8.140512
 Ni 11.595560  4.557841  8.149721
 Ni  4.474539  9.998149  9.981081
 Ni  6.272649  8.132957  9.985991
 Ni  6.283632 10.070957  8.138284
 Ni  9.842089  9.830970  8.141459
 Ni  9.846353  4.634091 10.039477
 Ni 11.706582  9.897830  9.920114
 Ni 13.561661  8.131294  9.972320
 Ni 11.669153  8.115298  8.141879
 Ni  4.467578 13.610686  9.945214
 Ni  6.296339 13.526294  8.119347
 Ni  4.467123 11.798223  8.103376
 Ni  9.824156 13.599299  8.179878
 Ni 11.659978 13.572640  9.882829
%endblock positions_abs_product 
%block positions_abs_intermediate 
     ang 
Al  1.019302  0.909326 11.785552
 Al  0.949698  4.567125 11.812706
 Al  0.968697  8.170136 11.707460
 Al  1.005516 11.659673 11.664167
 Al  0.932037  0.804025  0.886487
 Al  0.984516  4.607531  0.815911
 Al  1.014246  8.138011  0.894355
 Al  0.934325 11.740899  0.991630
 Al  1.021921  0.967827  4.538445
 Al  1.070887  4.595057  4.514785
 Al  1.073168  8.100161  4.553430
 Al  0.927816 11.643788  4.591014
 Al  1.003150  0.950184  8.173133
 Al  1.045292  4.603048  8.244253
 Al  1.089873  7.990993  8.213536
 Al  1.030588 11.783114  8.161728
 Al 11.484194 11.724227  8.148396
 Al 13.447497 13.641019  8.157143
 Al  7.899976 13.462536 13.497039
 Al  8.226026 11.748069  8.155387
 Al  7.892495  8.230981  8.112562
 Al  9.938936 13.522676 11.699266
 Al  6.182421 11.847467  9.957927
 Al 13.488116  9.869841  8.216864
 Al  9.862253  6.460133 11.851596
 Al  7.934347  6.264696  9.949690
 Al  4.561254  8.281863  8.167728
 Al 11.762377  6.333437  9.859036
 Al  9.830342  2.752010  8.322312
 Al  4.541561  4.320051  8.193067
 Al  4.530967  6.304980 10.137959
 Al 13.494456 13.576514  4.704535
 Al  6.267910 11.711340  6.253007
 Al  4.403809 13.673045  6.334177
 Al 13.402812  8.021367  6.288934
 Al  9.918276  8.188634  6.241924
 Al  4.495400  8.250255  4.415581
 Al 13.378623  4.681455  6.353864
 Al  9.805147  4.587861  6.266768
 Al  7.164322  6.323791  5.361085
 Al  4.536460  6.239662  6.244474
 Al 13.372059  4.683338  2.702336
 Al 13.329696  2.608983  4.541991
 Al  9.861613  0.827988  6.285607
 Al  6.306986  2.690988  4.697624
 Al 13.395319 11.652848 13.605744
 Al 11.748506 13.538888  2.737018
 Al  9.905225 13.449656  0.869744
 Al  4.349747 13.482832  2.716880
 Al 11.747668 10.074155  2.881619
 Al 13.478826  8.044547  2.745358
 Al  9.902690  9.993847  0.972786
 Al  8.049782  4.414915  0.925073
 Al  9.944206  6.473420  0.993782
 Al  6.191377  4.586893  2.754615
 Al 13.377559  2.639859  0.817374
 Al  8.090453  1.039288  0.873394
 Al  6.245575  0.904242  2.724250
 Al 13.380169 13.589309 11.642655
 Al 13.371547  8.170984 13.549359
 Al  9.926000  9.899135 11.667062
 Al  7.993326  9.963834 13.648998
 Al  6.147437  9.871844 11.769673
 Al 13.386480  2.724696 11.784824
 Al 13.348512  2.716285  8.242675
 Al  9.962755  4.366092 13.509770
 Ni  0.869570  2.701712 13.588501
 Ni  2.701463  0.891461 13.590570
 Ni  2.736807  2.716880 11.798228
 Ni  0.852678  6.416609 13.569272
 Ni  2.726195  4.510085 13.568257
 Ni  2.707069  6.323993 11.838593
 Ni  0.877136  9.952871 13.567136
 Ni  2.728521  8.140391 13.581902
 Ni  2.758843  9.930158 11.781901
 Ni  0.808322 13.430823 13.438241
 Ni  2.702483 11.746507 13.579987
 Ni  2.727397 13.559787 11.779337
 Ni  0.774787  2.857568  2.679581
 Ni  2.671889  0.950184  2.694703
 Ni  2.698070  2.713696  0.918513
 Ni  0.914691  6.322863  2.693834
 Ni  2.756275  4.522941  2.688989
 Ni  2.741438  6.339212  0.902819
 Ni  0.873624  9.851742  2.741458
 Ni  2.739203  8.146723  2.685955
 Ni  2.692002  9.955958  0.919418
 Ni  0.888622 13.567433  2.800088
 Ni  2.657999 11.705722  2.740326
 Ni  2.673648 13.532686  0.871142
 Ni  0.764986  2.856271  6.353374
 Ni  2.666817  0.982597  6.351434
 Ni  2.720655  2.736339  4.512094
 Ni  0.984218  6.309690  6.329272
 Ni  2.758122  4.470796  6.356721
 Ni  2.804088  6.330114  4.493295
 Ni  0.871916  9.821023  6.459084
 Ni  2.821708  8.115208  6.356781
 Ni  2.707453  9.954520  4.537521
 Ni  0.896262 13.593013  6.374271
 Ni  2.681848 11.748809  6.336122
 Ni  2.666266 13.551948  4.542876
 Ni  0.882098  2.711731 10.000084
 Ni  2.716965  0.927146  9.984314
 Ni  2.697792  2.712115  8.180303
 Ni  0.928179  6.312105 10.015644
 Ni  2.766172  4.486339 10.030141
 Ni  2.936517  6.287617  8.180482
 Ni  0.923652  9.937295  9.878911
 Ni  2.789751  8.132135  9.990081
 Ni  2.739466  9.953069  8.143172
 Ni  0.877692 13.580088  9.982489
 Ni  2.748864 11.781431  9.956590
 Ni  2.725984 13.608986  8.181508
 Ni  4.484298  2.697862 13.605707
 Ni  6.265995  0.900691 13.591345
 Ni  6.283329  2.696682 11.806418
 Ni  4.495291  0.892864 11.797196
 Ni  8.076541  2.709022 13.534092
 Ni  9.827695  0.817326 13.582611
 Ni  9.841040  2.683183 11.728301
 Ni  8.059370  0.867413 11.780840
 Ni 11.665175  2.628132 13.549260
 Ni 13.524599  0.848387 13.519302
 Ni 11.632194  0.906114 11.747735
 Ni  4.502725  6.317483 13.600969
 Ni  6.299399  4.518326 13.583527
 Ni  6.317139  6.330582 11.855864
 Ni  4.530760  4.487321 11.836827
 Ni  8.170952  6.286270 13.677927
 Ni 11.654454  4.596625 11.742792
 Ni  8.093138  4.551648 11.811080
 Ni 11.671629  6.312539 13.588068
 Ni 13.517877  6.337396 11.794212
 Ni  4.457857  9.929466 13.618641
 Ni  6.298789  8.127241 13.620028
 Ni  4.492239  8.109439 11.845017
 Ni  9.878553  8.227743 13.605617
 Ni  8.047635  8.179174 11.817574
 Ni 11.684531  9.935379 13.552478
 Ni 13.540503  9.939691 11.703787
 Ni  4.483671 13.568021 13.598073
 Ni  6.216269 11.703439 13.588254
 Ni  6.222240 13.575838 11.753596
 Ni  4.486981 11.770818 11.797232
 Ni  8.023320 11.675264 11.775787
 Ni  9.899124 11.730952 13.536817
 Ni  8.015865  9.961687  9.958498
 Ni  9.860172 11.718337 10.002818
 Ni 11.737873 13.548144 13.552707
 Ni 11.724535 11.717749 11.709799
 Ni 13.496097 11.746543  9.833312
 Ni  4.508220  2.710257  2.717610
 Ni  6.244867  2.709368  0.906846
 Ni  4.466513  0.890451  0.930269
 Ni  8.056410  2.684990  2.760878
 Ni  9.886128  0.852136  2.704000
 Ni  9.922304  2.701860  0.925309
 Ni 11.695683  2.692466  2.691377
 Ni 13.558589  0.892874  2.735475
 Ni 11.658649  0.822704  0.906238
 Ni  4.516180  6.355587  2.717536
 Ni  6.303662  6.305809  0.931827
 Ni  4.497273  4.521075  0.891186
 Ni  8.074471  6.313811  2.715100
 Ni  9.873593  4.510784  2.694609
 Ni 11.628163  6.367056  2.766440
 Ni 11.662516  4.538797  0.904528
 Ni 13.486045  6.388580  0.889195
 Ni 13.481573  4.533244 13.565937
 Ni  4.480835  9.994372  2.689176
 Ni  6.305915  8.127315  2.704452
 Ni  6.243511  9.955229  0.947604
 Ni  4.521439  8.133005  0.922121
 Ni  8.049501  9.983132  2.711630
 Ni  9.844088  8.233425  2.771078
 Ni  8.069993  8.162158  0.934344
 Ni 11.702223 11.723556  0.956789
 Ni 11.678856  8.229043  0.980832
 Ni 13.551122  9.902976  0.962299
 Ni  6.273536 11.786032  2.707193
 Ni  6.254976 13.597398  0.939959
 Ni  4.479111 11.753957  0.898872
 Ni  8.071778 13.608149  2.679568
 Ni  9.862469 11.776554  2.750172
 Ni  8.042850 11.775413  0.918538
 Ni 13.576929 11.791462  2.798785
 Ni 13.557921 13.520830  0.882861
 Ni  4.480313  2.650124  6.355305
 Ni  6.308149  0.871940  6.362029
 Ni  4.469459  0.916659  4.479895
 Ni  8.172564  2.689206  6.384897
 Ni  8.075231  0.881100  8.160746
 Ni  9.888645  2.684225  4.489307
 Ni  8.061801  0.877253  4.515638
 Ni 11.642523  0.854601  4.509943
 Ni  6.324063  4.474829  6.383974
 Ni  4.540101  4.473169  4.520113
 Ni  9.797207  6.352370  4.510984
 Ni 11.656785  8.124329  4.491750
 Ni  8.091795  4.464546  4.462783
 Ni  9.710955  6.409527  8.033358
 Ni 11.660961  4.518549  4.512129
 Ni 13.548912  6.330838  4.533487
 Ni  4.462908  9.994892  6.319348
 Ni  6.196393  8.193506  6.263348
 Ni  6.287637  9.970672  4.475625
 Ni  8.063562  9.965100  6.298385
 Ni  9.855338 10.012364  4.540783
 Ni  8.055713  8.213879  4.494187
 Ni 11.728717  9.970203  6.314674
 Ni 11.601341  6.330602  6.323635
 Ni 13.567666  9.874617  4.583098
 Ni  6.252602 13.566531  4.512703
 Ni  4.468023 11.755267  4.538125
 Ni  8.046904 13.527955  6.324743
 Ni  9.858538 11.763294  6.290075
 Ni  9.843462 13.525292  4.522281
 Ni  8.049519 11.783758  4.477327
 Ni 11.678621 13.563618  6.402315
 Ni 13.536867 11.716304  6.486719
 Ni 11.705963 11.812364  4.615519
 Ni  4.505944  2.657809 10.021500
 Ni  6.295584  0.882305  9.976970
 Ni  6.346417  2.658537  8.168169
 Ni  4.515804  0.931634  8.176179
 Ni  8.044697  2.712511 10.007344
 Ni  9.845486  0.885649  9.979934
 Ni 11.615641  2.713996  6.365425
 Ni  8.051126 13.541351  9.976459
 Ni 11.641226  2.751446 10.008074
 Ni 13.502276  0.933134  9.967396
 Ni 13.496333  0.951214  6.404443
 Ni 11.592847  0.944279  8.179369
 Ni  6.253515  4.471675 10.001885
 Ni  6.152710  6.306816  8.127626
 Ni  9.806514  8.044546  9.917920
 Ni  8.037421  4.509229  8.144044
 Ni 11.689580  8.116134 11.706239
 Ni 13.554548  4.514072  9.978022
 Ni 13.589645  6.344482  8.138583
 Ni 11.599215  4.552511  8.149713
 Ni  4.473787  9.994632  9.979616
 Ni  6.269424  8.127967  9.985966
 Ni  6.277204 10.085316  8.141354
 Ni  9.845692  9.838597  8.145305
 Ni  9.840202  4.638876 10.022344
 Ni 11.707427  9.893983  9.920005
 Ni 13.561474  8.126114  9.968748
 Ni 11.667279  8.112220  8.139205
 Ni  4.465459 13.608171  9.946776
 Ni  6.294103 13.523075  8.118733
 Ni  4.461701 11.799777  8.101619
 Ni  9.825588 13.597688  8.180919
 Ni 11.660879 13.570532  9.886757
%endblock positions_abs_intermediate 
     kpoint_mp_grid 1 1 1 
     fix_com : false