#######################################################
#CASTEP cell file: /home/u2093113/Documents/kART/barriers/CASTEP/castep.cell
#Created using the Atomic Simulation Environment (ASE)#
#######################################################

%BLOCK LATTICE_CART
14.464828  0.000000  0.000000
 0.000000 14.464828  0.000000
 0.000000  0.000000 14.464828
%ENDBLOCK LATTICE_CART

%BLOCK POSITIONS_ABS
Ni  8.212068  6.243550 13.561429
Ni 10.036015  4.453256 13.568196
Ni 10.027754  6.269963 11.765286
Al  8.247198  4.454500 11.765988
Ni 11.827259  6.270699 13.568109
Ni 13.633960  4.468770 13.562182
Ni 13.632522  6.276523 11.758430
Al 11.834301  4.467595 11.756903
Ni  8.150708  9.933405 13.616392
Ni 10.017585  8.082309 13.567161
Ni 10.018686  9.875456 11.771787
Al  8.229868  8.080972 11.779197
Ni 11.836513  9.881993 13.563977
Ni 13.630221  8.077845 13.565071
Ni 13.636634  9.879436 11.757011
Al 11.826441  8.076223 11.763512
Ni  8.215583 13.484088 13.537548
Ni 10.047904 11.695722 13.551818
Ni 10.053707 13.508703 11.743387
Al  8.301481 11.697160 11.711896
Ni 11.852657 13.501947 13.551570
Ni 13.637517 11.687892 13.558369
Ni 13.644192 13.495969 11.750967
Al 11.838744 11.685007 11.751941
Ni  8.219376  2.651817 13.561692
Ni 10.053474  0.842904 13.545837
Ni 10.037781  2.655889 11.752080
Al  8.260871  0.847538 11.761457
Ni 11.844262  2.655219 13.557569
Ni 13.643111  0.846072 13.556059
Ni 13.642382  2.661860 11.754074
Al 11.849440  0.850225 11.747285
Ni  8.194532  6.248181  2.769496
Ni 10.042989  4.438070  2.707590
Ni 10.028657  6.244238  0.920178
Al  8.236742  4.436792  0.915613
Ni 11.835352  6.269194  2.713887
Ni 13.634540  4.466446  2.717672
Ni 13.628789  6.274747  0.907584
Al 11.840594  4.456987  0.906058
Ni  8.156490  9.941129  2.654885
Ni 10.034449  8.089459  2.707232
Ni 10.032516  9.890863  0.904575
Al  8.296544  8.013535  0.907850
Ni 11.842416  9.892070  2.709235
Ni 13.627709  8.081171  2.716058
Ni 13.635185  9.884139  0.905227
Al 11.825704  8.076068  0.905261
Ni  8.208793 13.525257  2.749198
Ni 10.049150 11.710924  2.721659
Ni 10.071641 13.521504  0.902848
Al  8.337233 11.766476  0.912381
Ni 11.860426 13.503155  2.718933
Ni 13.641875 11.690899  2.716536
Ni 13.642571 13.498565  0.902592
Al 11.845850 11.696494  0.902685
Ni  8.221704  2.590421  2.722949
Ni 10.052436  0.832786  2.720341
Ni 10.047462  2.643697  0.904481
Al  8.291132  0.835632  0.857494
Ni 11.854804  2.644773  2.711165
Ni 13.650456  0.842918  2.717549
Ni 13.641771  2.655593  0.903371
Al 11.855209  0.846687  0.900911
Ni  8.251719  6.272051  6.287359
Ni 10.066910  4.460600  6.344867
Ni 10.045834  6.269719  4.515925
Al  8.338493  4.376301  4.521177
Ni 11.836289  6.279585  6.337485
Ni 13.637862  4.473792  6.338457
Ni 13.630875  6.278512  4.526977
Al 11.844553  4.463397  4.525274
Ni  8.220022  9.899389  6.352830
Ni 10.039558  8.089562  6.338885
Ni 10.050650  9.905718  4.514296
Al  8.314321  8.157284  4.503812
Ni 11.843176  9.883116  6.341131
Ni 13.633457  8.081046  6.335598
Ni 13.633776  9.884204  4.527576
Al 11.830386  8.084338  4.522031
Ni  8.248949 13.490396  6.362485
Ni 10.061629 11.688812  6.360939
Ni 10.077331 13.499053  4.544087
Al  8.313847 11.699066  4.565355
Ni 11.864522 13.492999  6.352756
Ni 13.646627 11.685182  6.341507
Ni 13.650270 13.495884  4.532882
Al 11.852030 11.693363  4.532045
Ni  8.263650  2.644596  6.356413
Ni 10.089118  0.837789  6.369635
Ni 10.092815  2.632867  4.533774
Al  8.343873  0.841033  4.611599
Ni 11.862931  2.656373  6.352304
Ni 13.652007  0.843316  6.344161
Ni 13.638733  2.656375  4.530088
Al 11.864581  0.837144  4.534999
Ni  8.210967  6.275501  9.970172
Ni 10.029591  4.466836  9.957113
Ni 10.022664  6.280628  8.143719
Al  8.279253  4.465736  8.141901
Ni 11.829907  6.276349  9.954473
Ni 13.641005  4.474086  9.951422
Ni 13.637170  6.279211  8.144885
Al 11.839706  4.474968  8.153846
Ni  8.206515  9.883383  9.949516
Ni 10.021234  8.076887  9.961646
Ni 10.036535  9.877994  8.152591
Al  8.241215  8.077457  8.151036
Ni 11.834851  9.874368  9.958575
Ni 13.636228  8.077678  9.953718
Ni 13.640400  9.878045  8.147894
Al 11.832149  8.076869  8.149927
Ni  8.224086 13.508258  9.937048
Ni 10.049997 11.686415  9.941979
Ni 10.058483 13.494781  8.157074
Al  8.247041 11.687795  8.152848
Ni 11.853241 13.499598  9.951019
Ni 13.642303 11.683697  9.953062
Ni 13.653868 13.494733  8.150081
Al 11.852464 11.682678  8.154214
Ni  8.218206  2.644223  9.944545
Ni 10.043710  0.848165  9.948293
Ni 10.056313  2.656565  8.158661
Al  8.272735  0.840227  8.134623
Ni 11.847829  2.662034  9.954332
Ni 13.652258  0.846934  9.951083
Ni 13.649954  2.663590  8.149256
Al 11.861996  0.845655  8.160027
Ni  1.011005  6.228830 13.481900
Ni  2.757912  4.420018 13.501060
Al  4.755169  2.645364  9.885526
Ni  0.926127  4.414873 11.683234
Ni  4.505463  6.248875 13.530575
Ni  6.401208  4.434958 13.567026
Ni  4.581070  8.059243 11.737604
Ni  4.626461  4.410266 11.728807
Al  0.810960  0.829804  8.068016
Ni  0.945954  8.111587 11.646594
Ni  0.944319  9.945682 13.537608
Al  2.783603  2.746759  8.030662
Ni  4.554264  9.892361 13.510348
Ni  6.392160  8.065415 13.555057
Ni  6.418432  9.909932 11.782510
Ni  2.757671  9.921339 11.710724
Ni  0.962415 13.511437 13.530939
Ni  4.583222 11.737666 11.737302
Ni  2.758268 13.538618 11.680391
Al  4.655907 13.526355  9.963610
Ni  4.543034 13.572221 13.527711
Ni  4.603780 11.717352  0.875436
Ni  6.427225 13.527970 11.747260
Al  2.788900 13.445446  8.019007
Ni  0.944523  2.610558 13.501196
Ni  4.570891  0.893718 11.707859
Ni  0.968389  0.836785 11.653635
Ni  4.548932  2.608564 13.528907
Ni  6.405198  0.834697 13.565916
Ni  6.433724  2.642124 11.760989
Ni  2.795845  0.878892  9.808872
Ni  0.939628  6.224877  2.728631
Ni  2.780987  4.444864  2.732873
Al  4.606583  9.940204  9.988423
Ni  0.904932  4.388884  0.885884
Al  1.082031  9.944846  9.815696
Ni  6.449463  4.443148  2.735069
Ni  6.416973  6.259185  0.877254
Ni  4.608076  4.428285  0.876764
Ni  1.025317  9.890573  2.749161
Ni  2.764517  7.985222  2.663937
Ni  2.768523  9.877872  0.885826
Ni  0.949045  8.072680  0.878231
Ni  4.560912  9.813095  2.735075
Ni  6.424263  8.044994  2.711262
Al  2.862381  2.733681  4.663832
Ni  4.520233  7.998997  0.848436
Ni  0.970705  0.874647  0.911499
Al  0.964045 11.657422  4.560577
Ni  1.017263 11.772482  0.957700
Ni  4.555401 13.565653  2.747042
Ni  6.414120 13.541899  0.928672
Ni  2.773459 13.561032  0.912820
Al  4.703083  9.915627  6.335712
Al  2.784783  9.653931  4.535946
Ni  2.819586  0.933261  2.762399
Ni  2.755060  2.663924  0.878755
Ni  4.591254  2.679953  2.752510
Ni  6.411575  2.613416  0.925800
Al  6.368549  6.259651  4.633913
Al  4.744809  7.941320  8.116161
Al  2.792615  6.260691  4.503117
Al  0.886803  6.287759  6.344931
Ni  0.926943  4.471164  4.553140
Ni  6.484254  4.456402  6.316443
Ni  4.638129  4.533429  4.559368
Al  4.594108  0.889098  0.900442
Al  6.360336  0.840927  2.826895
Al  2.697019  0.790557 13.521960
Ni  0.949703  9.821805  6.344119
Al  0.981543  2.673483  2.765944
Ni  0.910102  8.037581  4.547157
Ni  2.838805  7.932235  6.396922
Ni  6.466444  8.080864  6.314512
Ni  6.429361  9.891153  4.488186
Ni  4.631748  7.984741  4.566191
Al  6.264753 11.771252  2.747727
Ni  0.938534 13.478982  6.307691
Ni  2.788691 11.609114  6.276292
Ni  2.769424 13.498717  4.554046
Al  1.027992 13.674270  2.771340
Ni  4.602352 13.477346  6.332646
Ni  6.448500 11.702129  6.304270
Ni  6.424264 13.502320  4.552561
Ni  4.565673 11.654210  4.530748
Al  2.909657 11.690427  2.631872
Ni  0.936038  2.685899  6.318065
Ni  2.764547  0.859190  6.376988
Al  6.245619  9.765143  0.903386
Ni  0.987975  0.901546  4.566966
Ni  4.631468  2.689230  6.367171
Ni  6.453406  0.837009  6.315995
Ni  6.430408  2.657304  4.553537
Ni  4.596653  0.868769  4.593188
Ni  0.954526  6.237770  9.894208
Ni  2.813403  4.381184  9.898707
Ni  2.797203  4.587289  6.338369
Ni  0.902076  4.457699  8.083249
Ni  4.633868  6.241968  9.940221
Ni  6.471687  4.461311  9.948355
Ni  6.473335  6.244175  8.099531
Ni  4.675532  4.509701  8.101874
Al  4.664147  6.226013  2.610678
Ni  0.979371 11.726419 11.683506
Ni  2.817227  8.066443  9.913448
Ni  2.886047  9.832845  8.091191
Ni  0.936117  8.062927  8.133624
Al  2.657324  6.146379  0.872111
Ni  6.394772  6.249706 11.784573
Ni  6.406218  9.878977  8.160142
Ni  6.419650  8.081719  9.985624
Al  2.707238  2.691134 11.665838
Ni  0.989956 13.483095  9.836385
Ni  2.826459 11.730085  9.888981
Al  6.273106 11.788107 13.534453
Ni  0.962401 11.676638  8.064859
Al  2.781592 11.730336 13.556272
Ni  6.427899 11.707382  9.970202
Ni  6.431613 13.505722  8.128969
Ni  4.646469 11.705271  8.130146
Al  2.768055  6.165218 11.634900
Al  2.785933  6.167356  8.230136
Ni  0.956200  2.638486  9.839072
Al  2.715651  8.178475 13.498124
Ni  4.635268  0.837452  8.109716
Ni  6.453137  0.836007  9.938786
Ni  6.458891  2.656253  8.108928
%ENDBLOCK POSITIONS_ABS

FIX_ALL_CELL: TRUE
KPOINT_MP_GRID: 1 1 1
