#######################################################
#CASTEP cell file: /home/u2093113/Documents/kART/barriers/CASTEP/castep.cell
#Created using the Atomic Simulation Environment (ASE)#
#######################################################

%BLOCK LATTICE_CART
14.464828  0.000000  0.000000
 0.000000 14.464828  0.000000
 0.000000  0.000000 14.464828
%ENDBLOCK LATTICE_CART

%BLOCK POSITIONS_ABS
Ni  8.208665  2.711955  6.359578
Ni 10.032828  0.899020  6.363382
Ni 10.030598  2.714981  4.566791
Al  8.244546  0.897650  4.579280
Ni 11.825533  2.717591  6.365154
Ni 13.626517  0.911725  6.361593
Ni 13.628897  2.715980  4.552780
Al 11.830665  0.908866  4.555597
Ni  8.219729  6.406070  6.335873
Ni 10.019307  4.536195  6.360849
Ni 10.053233  6.327214  4.545665
Al  8.247515  4.534835  4.574076
Ni 11.843405  6.323008  6.357715
Ni 13.629703  4.518954  6.361205
Ni 13.635086  6.320351  4.546699
Al 11.831532  4.516346  4.554484
Ni  8.216801  9.892311  6.338441
Ni 10.076287  8.144504  6.342108
Ni 10.066334  9.951549  4.536223
Al  8.319622  8.155926  4.496668
Ni 11.861267  9.946450  6.349559
Ni 13.635288  8.129669  6.355532
Ni 13.643648  9.942248  4.542447
Al 11.852885  8.132463  4.537234
Ni  8.219763 13.544422  6.352006
Ni 10.055273 11.738092  6.342970
Ni 10.036679 13.556480  4.553108
Al  8.261225 11.734270  4.566165
Ni 11.839523 13.561617  6.356458
Ni 13.639976 11.756283  6.355709
Ni 13.637092 13.570856  4.549286
Al 11.851723 11.758982  4.542054
Ni  6.496402  2.692627 11.751426
Ni 10.008161  0.890932  9.955401
Ni 10.013947  2.715145  8.159991
Al  8.232688  0.876969  8.142005
Ni 11.810530  2.715427  9.972316
Ni 13.621137  0.912962  9.978655
Ni 13.622302  2.716724  8.171490
Al 11.823872  0.906039  8.168318
Ni  8.206481  6.392218  9.979894
Ni 10.001590  4.532178  9.963555
Ni 10.043101  6.333275  8.165612
Al  8.237064  4.550998  8.138678
Ni 11.832186  6.321338  9.982278
Ni 13.622927  4.517749  9.980634
Ni 13.630247  6.323251  8.171690
Al 11.822345  4.520610  8.169569
Ni  8.209025  9.939692  9.998885
Ni 10.059695  8.148542  9.994669
Ni 10.077437  9.951788  8.165519
Al  8.356241  8.170743  8.171427
Ni 11.857378  9.945517  9.985929
Ni 13.633391  8.128476  9.984742
Ni 13.638074  9.941024  8.169431
Al 11.848721  8.133446  8.171121
Ni  8.219675 13.489287  9.969871
Ni 10.042918 11.734328  9.979577
Ni 10.040335 13.545000  8.160601
Al  8.292917 11.717420  8.108787
Ni 11.834137 13.561420  9.973894
Ni 13.639345 11.756299  9.982253
Ni 13.630684 13.567380  8.168782
Al 11.850250 11.753853  8.166786
Ni  8.212729  2.714834 13.592031
Ni 10.021809  0.912021 13.596867
Ni  9.998391  2.715115 11.769148
Al  8.271143  0.875813 11.763140
Ni 11.812811  2.716155 13.591513
Ni 13.625947  0.918396 13.591936
Ni 13.619870  2.716741 11.784635
Al 11.812507  0.915962 11.779495
Ni  8.205943  6.326159 13.612902
Ni 10.006294  4.515828 13.599011
Ni 10.034859  6.321993 11.794119
Al  8.238979  4.537652 11.766706
Ni 11.832919  6.310005 13.600952
Ni 13.626656  4.513368 13.592103
Ni 13.628266  6.316981 11.790783
Al 11.810795  4.512195 11.783451
Ni  8.242933  9.932650 13.625435
Ni 10.055143  8.124540 13.622469
Ni 10.074223  9.938600 11.806735
Al  8.310879  8.145176 11.836259
Ni 11.857373  9.939325 13.608865
Ni 13.639760  8.124473 13.597909
Ni 13.639917  9.941440 11.794279
Al 11.844985  8.125660 11.800427
Ni  8.250131 13.550918 13.607232
Ni 10.076626 11.752238 13.623067
Ni 10.055039 13.559562 11.785378
Al  8.336901 11.733043 11.862436
Ni 11.839133 13.577863 13.601978
Ni 13.639247 11.759857 13.597231
Ni 13.626274 13.572836 11.787565
Al 11.846980 11.756300 11.793454
Ni  8.210301  2.716957  2.790030
Ni 10.021439  0.904841  2.763591
Ni 10.008354  2.717226  0.949542
Al  8.261518  0.901498  0.960220
Ni 11.824893  2.713333  2.748598
Ni 13.632954  0.915332  2.742651
Ni 13.627261  2.715420  0.934160
Al 11.820325  0.917670  0.942285
Ni  8.214568  6.339253  2.759341
Ni 10.023653  4.518453  2.756448
Ni 10.028913  6.313747  0.944716
Al  8.228333  4.523708  0.969825
Ni 11.841807  6.314351  2.738104
Ni 13.632823  4.514387  2.742017
Ni 13.637853  6.313936  0.934459
Al 11.822449  4.509122  0.938202
Ni  8.228278  9.951836  2.731735
Ni 10.062407  8.134447  2.725278
Ni 10.058489  9.942577  0.946219
Al  8.250202  8.131764  0.949271
Ni 11.856498  9.948144  2.736347
Ni 13.641449  8.127565  2.737387
Ni 13.648426  9.942725  0.936295
Al 11.851327  8.123570  0.938718
Ni  8.212543 13.540947  2.760227
Ni 10.043794 11.756395  2.743974
Ni 10.039654 13.567926  0.953108
Al  8.268030 11.745982  0.933802
Ni 11.840717 13.571983  2.747108
Ni 13.647153 11.759851  2.739219
Ni 13.638029 13.577186  0.936279
Al 11.853087 11.762861  0.946284
Ni  1.005338  2.670455  6.283174
Ni  2.766677  0.870167  6.306343
Al  4.752520 13.538330  2.706668
Ni  0.925640  0.852603  4.489147
Ni  4.501025  2.759091  6.361203
Ni  6.397542  0.879107  6.363965
Ni  4.580718  4.570997  4.599428
Ni  4.623234  0.864323  4.552821
Al  0.816402 11.734015  0.858489
Ni  0.915450  4.561302  4.439185
Ni  0.912125  6.398991  6.330592
Al  2.791525 13.647104  0.827373
Ni  4.580460  8.103718  8.094058
Ni  6.422933  4.580575  6.328593
Ni  6.411625  6.382801  4.584610
Ni  2.748831  6.390105  4.535540
Ni  0.952082  9.943939  6.327928
Ni  4.581040  8.148490  4.591389
Ni  2.751778  9.969593  4.484223
Al  4.650729  9.950845  2.778276
Ni  4.549534  9.978969  6.330386
Ni  6.460099  6.408151  8.144842
Ni  6.428823  9.942992  4.561080
Al  2.791320  9.882782  0.816065
Ni  0.946587 13.512511  6.302239
Ni  4.569679 11.777962  4.519850
Ni  0.964826 11.737614  4.452728
Ni  4.547212 13.506758  6.329115
Ni  6.406989 11.717908  6.361431
Ni  6.428152 13.538773  4.571034
Ni  2.796284 11.776513  2.614185
Ni  0.936277  2.672023  9.968038
Ni  2.796715  0.874516  9.983271
Al  4.596257  6.426134  2.818555
Ni  0.909993  0.828929  8.144923
Al  1.071095  6.395515  2.617120
Ni  6.476298  0.843369  9.939024
Ni  6.403923  2.720343  8.110132
Ni  4.615929  0.879525  8.137684
Ni  1.030688  6.321918  9.996140
Ni  2.841195  4.429566  9.863709
Ni  2.764220  6.308964  8.105426
Ni  0.940979  4.509074  8.138093
Ni  4.587811  6.281137  9.965086
Ni  8.198645  2.708950  9.932604
Al  2.868124 13.622474 11.914373
Ni  6.447941  4.550385  9.925746
Ni  0.967503 11.773667  8.171266
Al  0.969203  8.087031 11.814516
Ni  1.002793  8.210206  8.219244
Ni  4.565397  9.973625  9.985911
Ni  6.416987  9.945627  8.177720
Ni  2.765513  9.991730  8.170644
Al  4.704111  6.339917 13.600009
Al  2.797854  6.090499 11.776176
Ni  2.824195 11.821391 10.013461
Ni  2.761390 13.560418  8.134981
Ni  4.601263 13.561272  9.988966
Ni  6.412413 13.495384  8.162977
Al  4.786682  2.631618 13.547578
Al  4.736756  4.474162  1.038151
Al  2.757922  2.706793 11.684135
Al  0.916366  2.736952 13.599303
Ni  0.936486  0.910127 11.803455
Ni  6.507798  0.871319 13.585382
Ni  4.668924  0.919590 11.764738
Al  4.596770 11.765216  8.149410
Al  6.366608 11.719094 10.065294
Al  2.695479 11.677083  6.319569
Ni  0.962780  6.252086 13.598451
Al  0.985924 13.571280 10.020027
Ni  0.932471  4.480509 11.785014
Ni  2.873666  4.369600 13.648763
Ni  6.449459  4.522562 13.601504
Ni  6.433994  6.346005 11.763952
Ni  4.667631  4.450697 11.772008
Al  6.275501  8.164202  9.961430
Ni  0.944908  9.914906 13.561000
Ni  2.795413  8.043973 13.530536
Ni  2.776503  9.928212 11.802492
Al  1.023254 10.107902 10.031269
Ni  4.603430  9.911919 13.586770
Ni  6.444333  8.143306 13.574658
Ni  6.422946  9.922963 11.798625
Ni  4.574217  8.084007 11.775231
Al  2.905561  8.122452  9.874265
Ni  0.947220 13.592006 13.573367
Ni  2.773765 11.757245 13.630474
Al  4.710575  4.671479  8.051521
Ni  0.992218 11.801244 11.823608
Ni  4.640218 13.599097 13.619209
Ni  6.448270 11.736258 13.574005
Ni  6.442265 13.535670 11.795410
Ni  4.604057 11.760522 11.837338
Ni  0.947634  2.677305  2.704123
Ni  2.815622  0.817723  2.714132
Ni  2.806605  1.030799 13.584996
Ni  0.918371  0.901580  0.877017
Ni  4.626671  2.702083  2.782632
Ni  6.466104  0.896468  2.776655
Ni  6.464751  2.697407  0.971090
Ni  4.678877  0.916895  0.945213
Al  4.770192  2.644674  9.950612
Ni  0.954650  8.176480  4.475122
Ni  2.806254  4.527725  2.756927
Ni  2.879186  6.279874  0.898960
Ni  0.952610  4.503183  0.934105
Al  2.672520  2.579027  8.146270
Ni  6.389760  2.702542  4.600240
Ni  6.413011  6.338257  0.977357
Ni  6.426373  4.543539  2.831661
Al  2.706855 13.591087  4.478672
Ni  0.983632  9.925845  2.629517
Ni  2.816024  8.180589  2.693716
Al  6.273318  8.148445  6.363003
Ni  0.961923  8.116956  0.855053
Al  2.771696  8.156346  6.354684
Ni  6.429759  8.163206  2.769252
Ni  6.426190  9.947978  0.929150
Ni  4.640563  8.145458  0.928720
Al  2.763315  2.611621  4.448077
Al  2.779960  2.622491  1.075483
Ni  0.960969 13.541980  2.637529
Al  2.666096  4.645912  6.258975
Ni  4.632700 11.737262  0.912191
Ni  6.447416 11.725749  2.752898
Ni  6.458274 13.541705  0.924219
%ENDBLOCK POSITIONS_ABS

FIX_ALL_CELL: TRUE
KPOINT_MP_GRID: 1 1 1
