#######################################################
#CASTEP cell file: /home/u2093113/Documents/kART/CASTEP/castep.cell
#Created using the Atomic Simulation Environment (ASE)#
#######################################################

%BLOCK LATTICE_CART
14.464828  0.000000  0.000000
 0.000000 14.464828  0.000000
 0.000000  0.000000 14.464828
%ENDBLOCK LATTICE_CART

%BLOCK POSITIONS_ABS
Al  8.221155  0.898993  8.150038
Al 11.839524  0.884272  8.129360
Al  8.272191  4.532894  8.160961
Al 11.853079  4.531074  8.138179
Al  8.322728  8.160000  8.051764
Al 11.876384  8.147976  8.107660
Al  8.228396 11.743655  8.133431
Al 11.853229 11.757594  8.112263
Al  8.210262  0.880853 11.725016
Al 11.832631  0.911711 11.726022
Al  8.202386  4.549399 11.707969
Al 11.856858  4.521749 11.737111
Al  8.373009  8.174565 11.746812
Al 11.866695  8.132809 11.747216
Al  8.277935 11.722241 11.663815
Al 11.865276 11.760415 11.726140
Al  8.232743  0.872262  0.874824
Al 11.823405  0.920643  0.880889
Al  8.221519  4.541011  0.898077
Al 11.822341  4.512834  0.872561
Al  8.295776  8.154247  0.952101
Al 11.893511  8.127155  0.891894
Al  8.333608 11.739974  0.985423
Al 11.831310 11.759903  0.892510
Al  8.241912  0.905145  4.529819
Al 11.807409  0.908945  4.513425
Al  8.252340  4.526167  4.507456
Al 11.832511  4.523523  4.505662
Al  8.246951  8.147248  4.518505
Al 11.840193  8.126518  4.516680
Al  8.233655 11.748351  4.504746
Al 11.871654 11.753672  4.520230
Al  4.766089 13.556253  6.299699
Al  0.829600 11.766618  4.491145
Al  2.801658 13.655336  4.391026
Al  4.671302  9.949933  6.384876
Al  2.788780  9.836783  4.422901
Al  4.691874  4.697271  7.926320
Al  0.964807  6.330792  6.301231
Al  2.859861 13.603690  1.015439
Al  0.863612  8.107205  1.017465
Al  4.707387  6.384310  2.735629
Al  2.790296  6.084302  0.883954
Al  4.782771  2.667605  2.688857
Al  4.673199  4.688678  4.849467
Al  2.731992  2.728010  0.799172
Al  0.802401  2.712548  2.717543
Al  4.552478 11.737515 11.724093
Al  6.356344 11.749037 13.656490
Al  2.651579 11.667492  9.888622
Al  0.918650 13.570314 13.486483
Al  6.258860  8.168766 13.548493
Al  0.900715 10.085399 13.494768
Al  2.871505  8.135259 13.459336
Al  4.735105  4.672452 11.704006
Al  4.812357  2.622447 13.557200
Al  2.677994  2.572269 11.711754
Al  2.694390 13.618423  8.090166
Al  6.275806  8.158946  9.897414
Al  2.768460  8.140638  9.894312
Al  2.732073  2.583370  8.029221
Al  2.761079  2.645465  4.700760
Al  2.627708  4.657423  9.877522
Ni  8.216985  2.702537  9.930938
Ni 10.035906  0.895853  9.939096
Ni 10.052941  2.709611  8.151173
Ni 11.851043  2.712927  9.936943
Ni 13.645796  0.903663  9.914791
Ni 13.618410  2.721346  8.123812
Ni  8.239082  6.415993  9.916863
Ni 10.048262  4.531508  9.946179
Ni 10.079118  6.337422  8.132402
Ni 11.867658  6.329457  9.947392
Ni 13.665004  4.521705  9.937479
Ni 13.648906  6.345604  8.127425
Ni  8.230001  9.886141  9.930026
Ni 10.088625  8.149101  9.917129
Ni 10.048574  9.958792  8.115416
Ni 11.857558  9.963032  9.909750
Ni 13.639396  8.146484  9.929384
Ni 13.664443  9.943292  8.100060
Ni  8.211597 13.557133  9.942208
Ni 10.055563 11.748399  9.916009
Ni 10.023555 13.553796  8.126298
Ni 11.843117 13.556986  9.909778
Ni 13.680329 11.759989  9.899567
Ni 13.661447 13.549191  8.111406
Ni  6.511255  2.701479  0.890048
Ni 10.013481  0.907468 13.527020
Ni 10.021818  2.718943 11.725095
Ni 11.821309  2.721293 13.517642
Ni 13.642610  0.924071 13.529871
Ni 13.657838  2.706531 11.721221
Ni  8.232129  6.415209 13.542640
Ni 10.005989  4.526158 13.530557
Ni 10.049716  6.330956 11.737532
Ni 11.847301  6.313322 13.545996
Ni 13.660058  4.518229 13.540324
Ni 13.674959  6.335001 11.752673
Ni  8.223179  9.959446 13.561533
Ni 10.079526  8.151991 13.567261
Ni 10.078643  9.958457 11.740001
Ni 11.881468  9.936733 13.551103
Ni 13.702408  8.125415 13.549592
Ni 13.648614  9.956360 11.706128
Ni  8.226620 13.466093 13.543561
Ni 10.068764 11.738414 13.542208
Ni 10.040669 13.550547 11.737380
Ni 11.841229 13.593018 13.541106
Ni 13.608855 11.792336 13.562437
Ni 13.617251 13.563922 11.694069
Ni  8.220506  2.712202  2.724490
Ni 10.024973  0.909838  2.697365
Ni 10.002267  2.713954  0.877427
Ni 11.838725  2.715583  2.690484
Ni 13.619971  0.877593  2.696109
Ni 13.612076  2.707860  0.842429
Ni  8.212773  6.338709  2.702759
Ni 10.025154  4.520092  2.692912
Ni 10.033428  6.330645  0.887566
Ni 11.825069  6.323481  2.689529
Ni 13.618396  4.545111  2.690359
Ni 13.654730  6.288976  0.889628
Ni  8.247632  9.948013  2.714376
Ni 10.057751  8.134751  2.714974
Ni 10.067738  9.937940  0.896789
Ni 11.851401  9.940001  2.705915
Ni 13.629408  8.109773  2.745339
Ni 13.665297  9.969786  0.910334
Ni  8.249868 13.551895  2.700888
Ni 10.073315 11.751158  2.732542
Ni 10.046580 13.565685  0.879922
Ni 11.822222 13.566893  2.698815
Ni 13.632851 11.778725  2.668860
Ni 13.634536 13.578042  0.901957
Ni  8.265841  2.697021  6.355310
Ni 10.034002  0.892343  6.340610
Ni 10.038184  2.715560  4.516690
Ni 11.817382  2.703098  6.340395
Ni 13.629675  0.904751  6.319206
Ni 13.593811  2.713976  4.547478
Ni  8.266567  6.337668  6.336430
Ni 10.048466  4.524106  6.332391
Ni 10.039395  6.326867  4.507280
Ni 11.858862  6.327704  6.309321
Ni 13.626393  4.510218  6.309902
Ni 13.642025  6.309212  4.483758
Ni  8.222953  9.944046  6.302420
Ni 10.073471  8.142069  6.303472
Ni 10.051922  9.948679  4.515005
Ni 11.844052  9.953004  6.314146
Ni 13.660965  8.155007  6.283837
Ni 13.637522  9.919401  4.496389
Ni  8.212626 13.560629  6.332066
Ni 10.028694 11.752318  6.317296
Ni 10.031507 13.560148  4.522910
Ni 11.838314 13.557054  6.324696
Ni 13.641197 11.741078  6.327684
Ni 13.602943 13.601568  4.506232
Ni  0.980134  2.712017  9.898445
Ni  2.789538  0.887757  9.909728
Ni  0.923096  0.907183  8.097804
Ni  4.487918  2.848485  9.890630
Ni  6.351592  0.900790  9.933580
Ni  4.585209  6.298112  9.863229
Ni  4.627885  0.870460  8.137808
Ni  0.920064  4.501587  8.112048
Ni  0.918641  6.375747  9.912707
Ni  4.547542  8.143892 11.696217
Ni  6.424997  4.570589  9.873484
Ni  6.455630  6.402176  8.078843
Ni  2.758212  6.351095  8.075912
Ni  0.941524  9.912489  9.921736
Ni  4.559062  8.064156  8.029361
Ni  2.770827  9.934882  8.057535
Ni  4.565476  9.981170  9.880347
Ni  6.457398  6.448409 11.716925
Ni  6.425275  9.929033  8.138780
Ni  0.971900 13.569064  9.902691
Ni  4.568392 11.793533  8.116736
Ni  0.994938 11.739062  8.057685
Ni  4.566107 13.517631  9.914028
Ni  6.398968 11.719942  9.903344
Ni  6.412645 13.541556  8.173694
Ni  2.784018 11.785045  6.226485
Ni  0.946759  2.689040 13.518544
Ni  2.811358  0.881063 13.553809
Ni  0.935917  0.870178 11.701808
Ni  6.443749  0.815023 13.528006
Ni  6.372591  2.718514 11.663678
Ni  4.590555  0.884167 11.706171
Ni  1.045105  6.339633 13.574309
Ni  2.862614  4.387692 13.427339
Ni  2.765200  6.311796 11.725293
Ni  0.976572  4.513439 11.739902
Ni  4.586615  6.308997 13.565515
Ni  8.197827  2.713223 13.499235
Ni  6.431969  4.572740 13.550445
Ni  0.940498 11.788965 11.704759
Ni  0.967752  8.139307 11.752696
Ni  4.563003 10.003096 13.571805
Ni  6.388326  9.947178 11.740430
Ni  2.759242  9.966725 11.737005
Ni  2.762363 11.821072 13.598205
Ni  2.786659 13.559141 11.694527
Ni  4.611021 13.565379 13.537176
Ni  6.388603 13.488693 11.732094
Ni  0.960323  0.900606  0.880508
Ni  6.454240  0.868336  2.719528
Ni  4.653074  0.916461  0.907583
Ni  1.007325  6.245799  2.702703
Ni  0.951348  4.465035  0.874812
Ni  2.865568  4.346854  2.812225
Ni  6.377840  4.538208  2.742746
Ni  6.424914  6.366989  0.874264
Ni  4.655843  4.476740  0.883875
Ni  0.960236  9.956022  2.713832
Ni  2.780467  8.048304  2.650226
Ni  2.697373  9.907626  0.845386
Ni  4.594676  9.911439  2.679106
Ni  6.422158  8.167728  2.718246
Ni  6.405565  9.927332  0.914613
Ni  4.532951  8.133434  0.920411
Ni  0.958717 13.614903  2.713537
Ni  2.760792 11.730140  2.764944
Ni  0.985613 11.817305  0.948397
Ni  4.650790 13.572286  2.722670
Ni  6.401489 11.735761  2.699155
Ni  6.409460 13.531630  0.914832
Ni  4.559827 11.729025  0.955458
Ni  0.904845  2.702710  6.325373
Ni  2.817809  0.794702  6.294381
Ni  2.790870  1.115341  2.704346
Ni  0.940740  0.920289  4.518662
Ni  4.647001  2.696264  6.367979
Ni  6.431097  0.941466  6.335982
Ni  6.438107  2.730964  4.565695
Ni  4.666432  0.911139  4.516721
Ni  0.958093  8.166548  8.095708
Ni  2.726523  4.502996  6.347302
Ni  2.820890  6.309350  4.487881
Ni  0.962193  4.491589  4.502085
Ni  6.414300  2.707994  8.160291
Ni  6.450477  6.342976  4.567995
Ni  6.545913  4.511365  6.353379
Ni  0.996684  9.934525  6.257326
Ni  2.789046  8.132531  6.281549
Ni  0.979533  8.093392  4.457900
Ni  6.414047  8.107043  6.306995
Ni  6.405423  9.937287  4.486261
Ni  4.628915  8.124479  4.552876
Ni  0.943214 13.562735  6.269369
Ni  4.629502 11.728110  4.485409
Ni  6.437931 11.734764  6.312457
Ni  6.457839 13.549863  4.477252
%ENDBLOCK POSITIONS_ABS

