#######################################################
#CASTEP cell file: /home/u2093113/Documents/kART/CASTEP/castep.cell
#Created using the Atomic Simulation Environment (ASE)#
#######################################################

%BLOCK LATTICE_CART
14.464828  0.000000  0.000000
 0.000000 14.464828  0.000000
 0.000000  0.000000 14.464828
%ENDBLOCK LATTICE_CART

%BLOCK POSITIONS_ABS
Al  8.224416  0.893968  8.146151
Al 11.839130  0.884193  8.126711
Al  8.243309  4.529455  8.140208
Al 11.853235  4.529033  8.137638
Al  8.312540  8.152217  8.046298
Al 11.874460  8.144584  8.104856
Al  8.227246 11.742332  8.129978
Al 11.852212 11.753087  8.109373
Al  8.212382  0.876312 11.724781
Al 11.833299  0.908364 11.720855
Al  8.208102  4.545473 11.714043
Al 11.855734  4.518787 11.727986
Al  8.371477  8.171534 11.746276
Al 11.866671  8.131016 11.741684
Al  8.277900 11.718874 11.662306
Al 11.864778 11.756178 11.721564
Al  8.237369  0.869494  0.872652
Al 11.825822  0.916876  0.878176
Al  8.233803  4.535951  0.885702
Al 11.824916  4.509379  0.871384
Al  8.297760  8.150993  0.950227
Al 11.894650  8.125429  0.889466
Al  8.335219 11.737576  0.986058
Al 11.831803 11.756664  0.890629
Al  8.243791  0.904696  4.526169
Al 11.808554  0.907050  4.513567
Al  8.252395  4.517141  4.513614
Al 11.834537  4.522239  4.504806
Al  8.243620  8.142741  4.511721
Al 11.840296  8.122196  4.517615
Al  8.232772 11.748262  4.498682
Al 11.872242 11.751876  4.519768
Al  4.766582 13.558059  6.291971
Al  0.828685 11.767262  4.488960
Al  2.803324 13.657086  4.385609
Al  4.670031  9.954334  6.374761
Al  2.786044  9.837948  4.413351
Al  4.709018  4.604126  8.011087
Al  0.964851  6.322916  6.308762
Al  2.858142 13.608319  1.017179
Al  0.862058  8.105413  1.016053
Al  4.692541  6.296870  2.792523
Al  2.793671  6.082502  0.886669
Al  4.783451  2.703120  2.701833
Al  4.639647  5.523030  5.507071
Al  2.729910  2.722363  0.796033
Al  0.798099  2.709124  2.717345
Al  4.551845 11.738925 11.730491
Al  6.358332 11.746668 13.658923
Al  2.652980 11.670455  9.888062
Al  0.917585 13.566995 13.484716
Al  6.256385  8.165506 13.552244
Al  0.901137 10.082949 13.492782
Al  2.874845  8.132814 13.463128
Al  4.735180  4.667700 11.709682
Al  4.812666  2.617827 13.558935
Al  2.675793  2.565933 11.716167
Al  2.696162 13.621189  8.083450
Al  6.276264  8.156264  9.896758
Al  2.767620  8.141755  9.897582
Al  2.729768  2.573261  8.031727
Al  2.792289  2.692300  4.696012
Al  2.622386  4.649515  9.888446
Ni  8.217515  2.697911  9.928675
Ni 10.036154  0.892541  9.935268
Ni 10.047381  2.710456  8.146837
Ni 11.851315  2.711355  9.930496
Ni 13.645471  0.900002  9.910612
Ni 13.623487  2.720163  8.119530
Ni  8.233947  6.411081  9.912035
Ni 10.039551  4.528956  9.937592
Ni 10.071220  6.331817  8.128340
Ni 11.865142  6.326969  9.943700
Ni 13.669375  4.519703  9.933501
Ni 13.650422  6.342466  8.127628
Ni  8.227803  9.881900  9.927455
Ni 10.084840  8.144793  9.912859
Ni 10.044076  9.953887  8.111939
Ni 11.856730  9.959111  9.905369
Ni 13.641757  8.144372  9.925838
Ni 13.666767  9.940477  8.097473
Ni  8.210854 13.553888  9.940520
Ni 10.053558 11.744654  9.911934
Ni 10.023322 13.550526  8.122890
Ni 11.842410 13.552760  9.905388
Ni 13.680608 11.757192  9.895716
Ni 13.661195 13.547707  8.108585
Ni  6.514038  2.695404  0.887613
Ni 10.016324  0.903895 13.523950
Ni 10.022454  2.715498 11.721264
Ni 11.822713  2.717886 13.512473
Ni 13.642534  0.920001 13.526410
Ni 13.657259  2.702796 11.717399
Ni  8.231536  6.412964 13.545289
Ni 10.012346  4.523117 13.526753
Ni 10.048358  6.328848 11.734979
Ni 11.849103  6.311642 13.539270
Ni 13.656141  4.515502 13.534037
Ni 13.676010  6.333646 11.748378
Ni  8.223677  9.956762 13.561381
Ni 10.080821  8.149505 13.564269
Ni 10.077977  9.954821 11.736918
Ni 11.882022  9.933254 13.547576
Ni 13.702663  8.124115 13.546234
Ni 13.648715  9.954289 11.702593
Ni  8.228891 13.462366 13.543147
Ni 10.070499 11.734860 13.540173
Ni 10.041014 13.546750 11.734287
Ni 11.841611 13.589360 13.537565
Ni 13.607653 11.789308 13.559618
Ni 13.616541 13.560083 11.689506
Ni  8.232504  2.703074  2.719728
Ni 10.031780  0.905461  2.695890
Ni 10.009538  2.709625  0.874183
Ni 11.841668  2.712338  2.690022
Ni 13.619690  0.874951  2.695796
Ni 13.610816  2.703809  0.838947
Ni  8.226909  6.336637  2.693005
Ni 10.028059  4.516120  2.691437
Ni 10.041376  6.328655  0.882213
Ni 11.824829  6.320616  2.689337
Ni 13.618516  4.541054  2.689172
Ni 13.650701  6.286538  0.884522
Ni  8.245275  9.941317  2.710803
Ni 10.061603  8.133394  2.713505
Ni 10.069160  9.934889  0.895434
Ni 11.852160  9.938320  2.704836
Ni 13.626607  8.107874  2.743558
Ni 13.664747  9.968204  0.908174
Ni  8.250910 13.554017  2.698032
Ni 10.073010 11.748313  2.731498
Ni 10.049161 13.562466  0.878462
Ni 11.823057 13.562642  2.698237
Ni 13.633194 11.777011  2.668185
Ni 13.634065 13.575199  0.900306
Ni  8.257040  2.705481  6.351137
Ni 10.031215  0.893082  6.338074
Ni 10.041670  2.713394  4.516571
Ni 11.817330  2.700697  6.340778
Ni 13.634648  0.905707  6.317330
Ni 13.594778  2.711858  4.548990
Ni  8.253209  6.324378  6.334226
Ni 10.050107  4.522433  6.332427
Ni 10.036276  6.323015  4.508205
Ni 11.859033  6.326515  6.309335
Ni 13.626389  4.507441  6.310845
Ni 13.643913  6.305141  4.484134
Ni  8.224178  9.946285  6.296865
Ni 10.065676  8.137164  6.301166
Ni 10.051484  9.945722  4.512232
Ni 11.842266  9.948576  6.312696
Ni 13.664315  8.152659  6.283679
Ni 13.637886  9.916915  4.495048
Ni  8.213495 13.558043  6.327428
Ni 10.030262 11.751128  6.314297
Ni 10.032568 13.558561  4.520609
Ni 11.838769 13.558542  6.323626
Ni 13.639769 11.740796  6.326028
Ni 13.604962 13.602228  4.505685
Ni  0.979036  2.706811  9.899438
Ni  2.789381  0.881620  9.911617
Ni  0.922913  0.905121  8.094765
Ni  4.489483  2.827336  9.912517
Ni  6.354123  0.894430  9.934850
Ni  4.586251  6.296290  9.877057
Ni  4.626070  0.865087  8.133987
Ni  0.932740  4.498960  8.108652
Ni  0.923090  6.374462  9.909625
Ni  4.548792  8.143915 11.697440
Ni  6.435185  4.562362  9.892470
Ni  6.428024  6.386342  8.080063
Ni  2.779787  6.344457  8.080738
Ni  0.943027  9.911892  9.920736
Ni  4.554887  8.098796  8.048560
Ni  2.767964  9.942036  8.057505
Ni  4.566144  9.987081  9.885676
Ni  6.459392  6.445624 11.719818
Ni  6.423873  9.929170  8.135186
Ni  0.972627 13.567555  9.899821
Ni  4.569180 11.793820  8.112913
Ni  0.995263 11.741876  8.055719
Ni  4.567758 13.516304  9.912306
Ni  6.398690 11.718195  9.902041
Ni  6.413056 13.539737  8.169271
Ni  2.784824 11.786172  6.222302
Ni  0.944502  2.684581 13.515636
Ni  2.811129  0.876578 13.554540
Ni  0.934732  0.864729 11.699962
Ni  6.446001  0.810716 13.528596
Ni  6.378053  2.710555 11.669777
Ni  4.591408  0.876271 11.709685
Ni  1.044815  6.339190 13.572766
Ni  2.865014  4.384553 13.429845
Ni  2.766262  6.310619 11.728307
Ni  0.976110  4.510221 11.742438
Ni  4.588148  6.304915 13.569307
Ni  8.201996  2.708824 13.499176
Ni  6.431682  4.568782 13.552545
Ni  0.940711 11.786766 11.702554
Ni  0.969208  8.137761 11.751714
Ni  4.564004  9.999461 13.577685
Ni  6.387818  9.946363 11.742127
Ni  2.760582  9.965700 11.739307
Ni  2.761929 11.820603 13.601438
Ni  2.787032 13.556036 11.695222
Ni  4.612394 13.565852 13.542018
Ni  6.389441 13.483652 11.733196
Ni  0.959214  0.897557  0.879500
Ni  6.451235  0.874358  2.713308
Ni  4.651749  0.923309  0.914703
Ni  0.997896  6.241767  2.694872
Ni  0.943968  4.463846  0.860668
Ni  2.823254  4.339826  2.780938
Ni  6.431107  4.527150  2.719840
Ni  6.420987  6.360251  0.880211
Ni  4.660495  4.476449  0.896123
Ni  0.958487  9.955178  2.711219
Ni  2.779466  8.037817  2.649749
Ni  2.698332  9.902277  0.846393
Ni  4.593628  9.915511  2.666641
Ni  6.412881  8.149867  2.710080
Ni  6.405340  9.921787  0.915085
Ni  4.533766  8.112045  0.935147
Ni  0.958612 13.616492  2.714033
Ni  2.759755 11.731557  2.760754
Ni  0.984740 11.814689  0.947031
Ni  4.651165 13.576628  2.720613
Ni  6.401423 11.736776  2.694266
Ni  6.411104 13.533044  0.914398
Ni  4.559322 11.734249  0.953070
Ni  0.919217  2.709760  6.320045
Ni  2.817875  0.802424  6.280506
Ni  2.794701  1.126169  2.710306
Ni  0.948424  0.928509  4.518185
Ni  4.651134  2.682179  6.365629
Ni  6.436130  0.935140  6.330719
Ni  6.449305  2.722397  4.559108
Ni  4.669189  0.927492  4.510950
Ni  0.963413  8.163115  8.094980
Ni  2.778296  4.514413  6.354580
Ni  2.791732  6.292011  4.479857
Ni  0.965995  4.488731  4.508610
Ni  6.419297  2.693674  8.159174
Ni  6.471668  6.330501  4.541174
Ni  6.472515  4.507878  6.316957
Ni  0.995040  9.937948  6.255676
Ni  2.780404  8.140928  6.277670
Ni  0.977037  8.091566  4.455196
Ni  6.418726  8.120247  6.296952
Ni  6.404155  9.935740  4.473989
Ni  4.628051  8.135526  4.510152
Ni  0.943480 13.563782  6.265332
Ni  4.628958 11.728464  4.479251
Ni  6.437953 11.734724  6.304145
Ni  6.456538 13.553348  4.471353
%ENDBLOCK POSITIONS_ABS

