#######################################################
#CASTEP cell file: /home/u2093113/Documents/kART/CASTEP/castep.cell
#Created using the Atomic Simulation Environment (ASE)#
#######################################################

%BLOCK LATTICE_CART
14.464828  0.000000  0.000000
 0.000000 14.464828  0.000000
 0.000000  0.000000 14.464828
%ENDBLOCK LATTICE_CART

%BLOCK POSITIONS_ABS
Al  8.227678  0.888943  8.142265
Al 11.838737  0.884114  8.124062
Al  8.214427  4.526015  8.119454
Al 11.853390  4.526992  8.137098
Al  8.302353  8.144434  8.040832
Al 11.872535  8.141193  8.102052
Al  8.226096 11.741008  8.126525
Al 11.851195 11.748580  8.106484
Al  8.214503  0.871771 11.724546
Al 11.833968  0.905017 11.715688
Al  8.213817  4.541546 11.720116
Al 11.854610  4.515825 11.718860
Al  8.369945  8.168503 11.745740
Al 11.866648  8.129222 11.736151
Al  8.277865 11.715507 11.660797
Al 11.864281 11.751941 11.716989
Al  8.241996  0.866727  0.870481
Al 11.828239  0.913109  0.875462
Al  8.246086  4.530891  0.873327
Al 11.827492  4.505925  0.870206
Al  8.299744  8.147739  0.948352
Al 11.895790  8.123703  0.887039
Al  8.336830 11.735178  0.986692
Al 11.832297 11.753425  0.888747
Al  8.245670  0.904246  4.522518
Al 11.809700  0.905156  4.513710
Al  8.252451  4.508116  4.519772
Al 11.836563  4.520956  4.503949
Al  8.240289  8.138235  4.504938
Al 11.840399  8.117875  4.518550
Al  8.231888 11.748173  4.492618
Al 11.872831 11.750079  4.519306
Al  4.767074 13.559864  6.284243
Al  0.827769 11.767906  4.486774
Al  2.804989 13.658837  4.380193
Al  4.668760  9.958736  6.364646
Al  2.783307  9.839112  4.403801
Al  4.726163  4.510981  8.095854
Al  0.964894  6.315039  6.316293
Al  2.856422 13.612949  1.018918
Al  0.860505  8.103621  1.014642
Al  4.677696  6.209430  2.849417
Al  2.797047  6.080702  0.889383
Al  4.784132  2.738635  2.714810
Al  4.606096  6.357382  6.164674
Al  2.727828  2.716717  0.792894
Al  0.793797  2.705699  2.717146
Al  4.551213 11.740336 11.736890
Al  6.360319 11.744298 13.661355
Al  2.654380 11.673417  9.887502
Al  0.916520 13.563677 13.482948
Al  6.253910  8.162245 13.555996
Al  0.901560 10.080499 13.490795
Al  2.878184  8.130368 13.466920
Al  4.735255  4.662948 11.715359
Al  4.812975  2.613207 13.560669
Al  2.673592  2.559598 11.720580
Al  2.697935 13.623956  8.076733
Al  6.276723  8.153581  9.896102
Al  2.766780  8.142873  9.900853
Al  2.727462  2.563152  8.034233
Al  2.823498  2.739135  4.691264
Al  2.617063  4.641607  9.899369
Ni  8.218045  2.693284  9.926412
Ni 10.036401  0.889230  9.931439
Ni 10.041820  2.711302  8.142501
Ni 11.851586  2.709783  9.924049
Ni 13.645147  0.896341  9.906433
Ni 13.628565  2.718981  8.115248
Ni  8.228812  6.406170  9.907207
Ni 10.030840  4.526404  9.929006
Ni 10.063322  6.326212  8.124277
Ni 11.862625  6.324481  9.940008
Ni 13.673747  4.517700  9.929523
Ni 13.651939  6.339329  8.127831
Ni  8.225605  9.877658  9.924883
Ni 10.081056  8.140485  9.908590
Ni 10.039579  9.948983  8.108462
Ni 11.855902  9.955190  9.900989
Ni 13.644117  8.142260  9.922293
Ni 13.669091  9.937663  8.094886
Ni  8.210112 13.550644  9.938833
Ni 10.051553 11.740908  9.907858
Ni 10.023088 13.547256  8.119482
Ni 11.841702 13.548533  9.900997
Ni 13.680887 11.754395  9.891864
Ni 13.660943 13.546223  8.105765
Ni  6.516822  2.689329  0.885177
Ni 10.019167  0.900323 13.520879
Ni 10.023090  2.712053 11.717432
Ni 11.824116  2.714479 13.507304
Ni 13.642458  0.915931 13.522949
Ni 13.656680  2.699060 11.713577
Ni  8.230942  6.410720 13.547939
Ni 10.018703  4.520076 13.522949
Ni 10.047000  6.326739 11.732426
Ni 11.850904  6.309961 13.532544
Ni 13.652225  4.512774 13.527751
Ni 13.677061  6.332292 11.744084
Ni  8.224174  9.954079 13.561229
Ni 10.082115  8.147020 13.561278
Ni 10.077310  9.951185 11.733835
Ni 11.882577  9.929774 13.544049
Ni 13.702918  8.122816 13.542876
Ni 13.648815  9.952217 11.699057
Ni  8.231162 13.458639 13.542733
Ni 10.072233 11.731305 13.538138
Ni 10.041360 13.542954 11.731194
Ni 11.841994 13.585703 13.534023
Ni 13.606450 11.786281 13.556800
Ni 13.615831 13.556245 11.684943
Ni  8.244503  2.693946  2.714966
Ni 10.038587  0.901084  2.694415
Ni 10.016809  2.705296  0.870939
Ni 11.844612  2.709093  2.689561
Ni 13.619409  0.872309  2.695484
Ni 13.609556  2.699757  0.835466
Ni  8.241046  6.334565  2.683252
Ni 10.030965  4.512147  2.689962
Ni 10.049324  6.326664  0.876860
Ni 11.824589  6.317751  2.689146
Ni 13.618636  4.536997  2.687984
Ni 13.646671  6.284099  0.879417
Ni  8.242918  9.934622  2.707231
Ni 10.065454  8.132036  2.712035
Ni 10.070582  9.931837  0.894079
Ni 11.852918  9.936639  2.703756
Ni 13.623807  8.105975  2.741777
Ni 13.664196  9.966623  0.906013
Ni  8.251952 13.556139  2.695176
Ni 10.072705 11.745468  2.730455
Ni 10.051742 13.559247  0.877001
Ni 11.823891 13.558390  2.697660
Ni 13.633537 11.775297  2.667509
Ni 13.633595 13.572355  0.898654
Ni  8.248239  2.713941  6.346965
Ni 10.028428  0.893821  6.335538
Ni 10.045156  2.711228  4.516453
Ni 11.817278  2.698297  6.341160
Ni 13.639621  0.906662  6.315454
Ni 13.595745  2.709740  4.550502
Ni  8.239852  6.311088  6.332022
Ni 10.051748  4.520761  6.332463
Ni 10.033158  6.319164  4.509130
Ni 11.859204  6.325326  6.309349
Ni 13.626386  4.504664  6.311788
Ni 13.645801  6.301071  4.484510
Ni  8.225404  9.948523  6.291310
Ni 10.057881  8.132259  6.298861
Ni 10.051045  9.942766  4.509459
Ni 11.840479  9.944148  6.311246
Ni 13.667665  8.150312  6.283522
Ni 13.638250  9.914428  4.493707
Ni  8.214365 13.555457  6.322789
Ni 10.031830 11.749937  6.311298
Ni 10.033630 13.556974  4.518308
Ni 11.839223 13.560031  6.322555
Ni 13.638342 11.740513  6.324373
Ni 13.606981 13.602888  4.505137
Ni  0.977938  2.701605  9.900432
Ni  2.789224  0.875483  9.913505
Ni  0.922730  0.903059  8.091727
Ni  4.491049  2.806187  9.934405
Ni  6.356654  0.888069  9.936120
Ni  4.587294  6.294468  9.890886
Ni  4.624256  0.859714  8.130166
Ni  0.945416  4.496333  8.105256
Ni  0.927538  6.373176  9.906543
Ni  4.550043  8.143939 11.698664
Ni  6.445373  4.554136  9.911456
Ni  6.400419  6.370509  8.081284
Ni  2.801363  6.337819  8.085565
Ni  0.944530  9.911294  9.919736
Ni  4.550712  8.133435  8.067759
Ni  2.765101  9.949190  8.057475
Ni  4.566811  9.992991  9.891004
Ni  6.461385  6.442840 11.722710
Ni  6.422472  9.929306  8.131593
Ni  0.973354 13.566047  9.896951
Ni  4.569967 11.794107  8.109091
Ni  0.995587 11.744690  8.053754
Ni  4.569409 13.514976  9.910584
Ni  6.398412 11.716449  9.900738
Ni  6.413467 13.537918  8.164847
Ni  2.785630 11.787299  6.218119
Ni  0.942245  2.680122 13.512727
Ni  2.810901  0.872094 13.555272
Ni  0.933547  0.859279 11.698116
Ni  6.448253  0.806409 13.529186
Ni  6.383515  2.702597 11.675876
Ni  4.592261  0.868375 11.713198
Ni  1.044526  6.338748 13.571222
Ni  2.867413  4.381414 13.432351
Ni  2.767324  6.309442 11.731321
Ni  0.975648  4.507004 11.744974
Ni  4.589682  6.300833 13.573099
Ni  8.206165  2.704424 13.499117
Ni  6.431395  4.564825 13.554645
Ni  0.940923 11.784567 11.700349
Ni  0.970664  8.136214 11.750731
Ni  4.565005  9.995827 13.583565
Ni  6.387311  9.945547 11.743825
Ni  2.761921  9.964675 11.741608
Ni  2.761495 11.820135 13.604670
Ni  2.787405 13.552931 11.695918
Ni  4.613768 13.566325 13.546860
Ni  6.390279 13.478611 11.734299
Ni  0.958105  0.894507  0.878493
Ni  6.448231  0.880379  2.707087
Ni  4.650425  0.930157  0.921823
Ni  0.988467  6.237735  2.687041
Ni  0.936589  4.462658  0.846524
Ni  2.780939  4.332797  2.749650
Ni  6.484373  4.516092  2.696934
Ni  6.417059  6.353513  0.886158
Ni  4.665147  4.476157  0.908372
Ni  0.956738  9.954333  2.708605
Ni  2.778465  8.027329  2.649271
Ni  2.699291  9.896929  0.847400
Ni  4.592579  9.919584  2.654176
Ni  6.403604  8.132005  2.701915
Ni  6.405115  9.916243  0.915556
Ni  4.534582  8.090655  0.949883
Ni  0.958507 13.618081  2.714530
Ni  2.758719 11.732974  2.756565
Ni  0.983866 11.812073  0.945665
Ni  4.651539 13.580969  2.718555
Ni  6.401358 11.737790  2.689376
Ni  6.412749 13.534459  0.913964
Ni  4.558816 11.739473  0.950682
Ni  0.933588  2.716810  6.314717
Ni  2.817941  0.810145  6.266630
Ni  2.798531  1.136996  2.716266
Ni  0.956108  0.936729  4.517708
Ni  4.655268  2.668094  6.363278
Ni  6.441163  0.928814  6.325456
Ni  6.460503  2.713830  4.552521
Ni  4.671946  0.943845  4.505179
Ni  0.968734  8.159681  8.094252
Ni  2.830069  4.525830  6.361858
Ni  2.762573  6.274671  4.471832
Ni  0.969796  4.485873  4.515135
Ni  6.424294  2.679354  8.158057
Ni  6.492858  6.318025  4.514353
Ni  6.399116  4.504391  6.280534
Ni  0.993395  9.941371  6.254027
Ni  2.771763  8.149324  6.273790
Ni  0.974540  8.089739  4.452492
Ni  6.423404  8.133451  6.286910
Ni  6.402887  9.934193  4.461717
Ni  4.627186  8.146574  4.467427
Ni  0.943745 13.564830  6.261295
Ni  4.628415 11.728819  4.473093
Ni  6.437976 11.734684  6.295833
Ni  6.455236 13.556834  4.465453
%ENDBLOCK POSITIONS_ABS

