%block lattice_abc 
  14.46482773 14.46482773 14.46482773 #lattice params 
 90.0  90.0  90.0 
     %endblock lattice_abc 
     fix_all_cell : true 
     %BLOCK POSITIONS_ABS 
Al  8.227678  0.888943  8.142265
 Al 11.838737  0.884114  8.124062
 Al  8.214427  4.526015  8.119454
 Al 11.853390  4.526992  8.137098
 Al  8.302353  8.144434  8.040832
 Al 11.872535  8.141193  8.102052
 Al  8.226096 11.741008  8.126525
 Al 11.851195 11.748580  8.106484
 Al  8.214503  0.871771 11.724546
 Al 11.833968  0.905017 11.715688
 Al  8.213817  4.541546 11.720116
 Al 11.854610  4.515825 11.718860
 Al  8.369945  8.168503 11.745740
 Al 11.866648  8.129222 11.736151
 Al  8.277865 11.715507 11.660797
 Al 11.864281 11.751941 11.716989
 Al  8.241996  0.866727  0.870481
 Al 11.828239  0.913109  0.875462
 Al  8.246086  4.530891  0.873327
 Al 11.827492  4.505925  0.870206
 Al  8.299744  8.147739  0.948352
 Al 11.895790  8.123703  0.887039
 Al  8.336830 11.735178  0.986692
 Al 11.832297 11.753425  0.888747
 Al  8.245670  0.904246  4.522518
 Al 11.809700  0.905156  4.513710
 Al  8.252451  4.508116  4.519772
 Al 11.836563  4.520956  4.503949
 Al  8.240289  8.138235  4.504938
 Al 11.840399  8.117875  4.518550
 Al  8.231888 11.748173  4.492618
 Al 11.872831 11.750079  4.519306
 Al  4.767074 13.559864  6.284243
 Al  0.827769 11.767906  4.486774
 Al  2.804989 13.658837  4.380193
 Al  4.668760  9.958736  6.364646
 Al  2.783307  9.839112  4.403801
 Al  4.726163  4.510981  8.095854
 Al  0.964894  6.315039  6.316293
 Al  2.856422 13.612949  1.018918
 Al  0.860505  8.103621  1.014642
 Al  4.677696  6.209430  2.849417
 Al  2.797047  6.080702  0.889383
 Al  4.784132  2.738635  2.714810
 Al  4.606096  6.357382  6.164674
 Al  2.727828  2.716717  0.792894
 Al  0.793797  2.705699  2.717146
 Al  4.551213 11.740336 11.736890
 Al  6.360319 11.744298 13.661355
 Al  2.654380 11.673417  9.887502
 Al  0.916520 13.563677 13.482948
 Al  6.253910  8.162245 13.555996
 Al  0.901560 10.080499 13.490795
 Al  2.878184  8.130368 13.466920
 Al  4.735255  4.662948 11.715359
 Al  4.812975  2.613207 13.560669
 Al  2.673592  2.559598 11.720580
 Al  2.697935 13.623956  8.076733
 Al  6.276723  8.153581  9.896102
 Al  2.766780  8.142873  9.900853
 Al  2.727462  2.563152  8.034233
 Al  2.823498  2.739135  4.691264
 Al  2.617063  4.641607  9.899369
 Ni  8.218045  2.693284  9.926412
 Ni 10.036401  0.889230  9.931439
 Ni 10.041820  2.711302  8.142501
 Ni 11.851586  2.709783  9.924049
 Ni 13.645147  0.896341  9.906433
 Ni 13.628565  2.718981  8.115248
 Ni  8.228812  6.406170  9.907207
 Ni 10.030840  4.526404  9.929006
 Ni 10.063322  6.326212  8.124277
 Ni 11.862625  6.324481  9.940008
 Ni 13.673747  4.517700  9.929523
 Ni 13.651939  6.339329  8.127831
 Ni  8.225605  9.877658  9.924883
 Ni 10.081056  8.140485  9.908590
 Ni 10.039579  9.948983  8.108462
 Ni 11.855902  9.955190  9.900989
 Ni 13.644117  8.142260  9.922293
 Ni 13.669091  9.937663  8.094886
 Ni  8.210112 13.550644  9.938833
 Ni 10.051553 11.740908  9.907858
 Ni 10.023088 13.547256  8.119482
 Ni 11.841702 13.548533  9.900997
 Ni 13.680887 11.754395  9.891864
 Ni 13.660943 13.546223  8.105765
 Ni  6.516822  2.689329  0.885177
 Ni 10.019167  0.900323 13.520879
 Ni 10.023090  2.712053 11.717432
 Ni 11.824116  2.714479 13.507304
 Ni 13.642458  0.915931 13.522949
 Ni 13.656680  2.699060 11.713577
 Ni  8.230942  6.410720 13.547939
 Ni 10.018703  4.520076 13.522949
 Ni 10.047000  6.326739 11.732426
 Ni 11.850904  6.309961 13.532544
 Ni 13.652225  4.512774 13.527751
 Ni 13.677061  6.332292 11.744084
 Ni  8.224174  9.954079 13.561229
 Ni 10.082115  8.147020 13.561278
 Ni 10.077310  9.951185 11.733835
 Ni 11.882577  9.929774 13.544049
 Ni 13.702918  8.122816 13.542876
 Ni 13.648815  9.952217 11.699057
 Ni  8.231162 13.458639 13.542733
 Ni 10.072233 11.731305 13.538138
 Ni 10.041360 13.542954 11.731194
 Ni 11.841994 13.585703 13.534023
 Ni 13.606450 11.786281 13.556800
 Ni 13.615831 13.556245 11.684943
 Ni  8.244503  2.693946  2.714966
 Ni 10.038587  0.901084  2.694415
 Ni 10.016809  2.705296  0.870939
 Ni 11.844612  2.709093  2.689561
 Ni 13.619409  0.872309  2.695484
 Ni 13.609556  2.699757  0.835466
 Ni  8.241046  6.334565  2.683252
 Ni 10.030965  4.512147  2.689962
 Ni 10.049324  6.326664  0.876860
 Ni 11.824589  6.317751  2.689146
 Ni 13.618636  4.536997  2.687984
 Ni 13.646671  6.284099  0.879417
 Ni  8.242918  9.934622  2.707231
 Ni 10.065454  8.132036  2.712035
 Ni 10.070582  9.931837  0.894079
 Ni 11.852918  9.936639  2.703756
 Ni 13.623807  8.105975  2.741777
 Ni 13.664196  9.966623  0.906013
 Ni  8.251952 13.556139  2.695176
 Ni 10.072705 11.745468  2.730455
 Ni 10.051742 13.559247  0.877001
 Ni 11.823891 13.558390  2.697660
 Ni 13.633537 11.775297  2.667509
 Ni 13.633595 13.572355  0.898654
 Ni  8.248239  2.713941  6.346965
 Ni 10.028428  0.893821  6.335538
 Ni 10.045156  2.711228  4.516453
 Ni 11.817278  2.698297  6.341160
 Ni 13.639621  0.906662  6.315454
 Ni 13.595745  2.709740  4.550502
 Ni  8.239852  6.311088  6.332022
 Ni 10.051748  4.520761  6.332463
 Ni 10.033158  6.319164  4.509130
 Ni 11.859204  6.325326  6.309349
 Ni 13.626386  4.504664  6.311788
 Ni 13.645801  6.301071  4.484510
 Ni  8.225404  9.948523  6.291310
 Ni 10.057881  8.132259  6.298861
 Ni 10.051045  9.942766  4.509459
 Ni 11.840479  9.944148  6.311246
 Ni 13.667665  8.150312  6.283522
 Ni 13.638250  9.914428  4.493707
 Ni  8.214365 13.555457  6.322789
 Ni 10.031830 11.749937  6.311298
 Ni 10.033630 13.556974  4.518308
 Ni 11.839223 13.560031  6.322555
 Ni 13.638342 11.740513  6.324373
 Ni 13.606981 13.602888  4.505137
 Ni  0.977938  2.701605  9.900432
 Ni  2.789224  0.875483  9.913505
 Ni  0.922730  0.903059  8.091727
 Ni  4.491049  2.806187  9.934405
 Ni  6.356654  0.888069  9.936120
 Ni  4.587294  6.294468  9.890886
 Ni  4.624256  0.859714  8.130166
 Ni  0.945416  4.496333  8.105256
 Ni  0.927538  6.373176  9.906543
 Ni  4.550043  8.143939 11.698664
 Ni  6.445373  4.554136  9.911456
 Ni  6.400419  6.370509  8.081284
 Ni  2.801363  6.337819  8.085565
 Ni  0.944530  9.911294  9.919736
 Ni  4.550712  8.133435  8.067759
 Ni  2.765101  9.949190  8.057475
 Ni  4.566811  9.992991  9.891004
 Ni  6.461385  6.442840 11.722710
 Ni  6.422472  9.929306  8.131593
 Ni  0.973354 13.566047  9.896951
 Ni  4.569967 11.794107  8.109091
 Ni  0.995587 11.744690  8.053754
 Ni  4.569409 13.514976  9.910584
 Ni  6.398412 11.716449  9.900738
 Ni  6.413467 13.537918  8.164847
 Ni  2.785630 11.787299  6.218119
 Ni  0.942245  2.680122 13.512727
 Ni  2.810901  0.872094 13.555272
 Ni  0.933547  0.859279 11.698116
 Ni  6.448253  0.806409 13.529186
 Ni  6.383515  2.702597 11.675876
 Ni  4.592261  0.868375 11.713198
 Ni  1.044526  6.338748 13.571222
 Ni  2.867413  4.381414 13.432351
 Ni  2.767324  6.309442 11.731321
 Ni  0.975648  4.507004 11.744974
 Ni  4.589682  6.300833 13.573099
 Ni  8.206165  2.704424 13.499117
 Ni  6.431395  4.564825 13.554645
 Ni  0.940923 11.784567 11.700349
 Ni  0.970664  8.136214 11.750731
 Ni  4.565005  9.995827 13.583565
 Ni  6.387311  9.945547 11.743825
 Ni  2.761921  9.964675 11.741608
 Ni  2.761495 11.820135 13.604670
 Ni  2.787405 13.552931 11.695918
 Ni  4.613768 13.566325 13.546860
 Ni  6.390279 13.478611 11.734299
 Ni  0.958105  0.894507  0.878493
 Ni  6.448231  0.880379  2.707087
 Ni  4.650425  0.930157  0.921823
 Ni  0.988467  6.237735  2.687041
 Ni  0.936589  4.462658  0.846524
 Ni  2.780939  4.332797  2.749650
 Ni  6.484373  4.516092  2.696934
 Ni  6.417059  6.353513  0.886158
 Ni  4.665147  4.476157  0.908372
 Ni  0.956738  9.954333  2.708605
 Ni  2.778465  8.027329  2.649271
 Ni  2.699291  9.896929  0.847400
 Ni  4.592579  9.919584  2.654176
 Ni  6.403604  8.132005  2.701915
 Ni  6.405115  9.916243  0.915556
 Ni  4.534582  8.090655  0.949883
 Ni  0.958507 13.618081  2.714530
 Ni  2.758719 11.732974  2.756565
 Ni  0.983866 11.812073  0.945665
 Ni  4.651539 13.580969  2.718555
 Ni  6.401358 11.737790  2.689376
 Ni  6.412749 13.534459  0.913964
 Ni  4.558816 11.739473  0.950682
 Ni  0.933588  2.716810  6.314717
 Ni  2.817941  0.810145  6.266630
 Ni  2.798531  1.136996  2.716266
 Ni  0.956108  0.936729  4.517708
 Ni  4.655268  2.668094  6.363278
 Ni  6.441163  0.928814  6.325456
 Ni  6.460503  2.713830  4.552521
 Ni  4.671946  0.943845  4.505179
 Ni  0.968734  8.159681  8.094252
 Ni  2.830069  4.525830  6.361858
 Ni  2.762573  6.274671  4.471832
 Ni  0.969796  4.485873  4.515135
 Ni  6.424294  2.679354  8.158057
 Ni  6.492858  6.318025  4.514353
 Ni  6.399116  4.504391  6.280534
 Ni  0.993395  9.941371  6.254027
 Ni  2.771763  8.149324  6.273790
 Ni  0.974540  8.089739  4.452492
 Ni  6.423404  8.133451  6.286910
 Ni  6.402887  9.934193  4.461717
 Ni  4.627186  8.146574  4.467427
 Ni  0.943745 13.564830  6.261295
 Ni  4.628415 11.728819  4.473093
 Ni  6.437976 11.734684  6.295833
 Ni  6.455236 13.556834  4.465453
 %ENDBLOCK POSITIONS_ABS
 
%block positions_abs_product 
     ang 
Al  8.221155  0.898993  8.150038
 Al 11.839524  0.884272  8.129360
 Al  8.272191  4.532894  8.160961
 Al 11.853079  4.531074  8.138179
 Al  8.322728  8.160000  8.051764
 Al 11.876384  8.147976  8.107660
 Al  8.228396 11.743655  8.133431
 Al 11.853229 11.757594  8.112263
 Al  8.210262  0.880853 11.725016
 Al 11.832631  0.911711 11.726022
 Al  8.202386  4.549399 11.707969
 Al 11.856858  4.521749 11.737111
 Al  8.373009  8.174565 11.746812
 Al 11.866695  8.132809 11.747216
 Al  8.277935 11.722241 11.663815
 Al 11.865276 11.760415 11.726140
 Al  8.232743  0.872262  0.874824
 Al 11.823405  0.920643  0.880889
 Al  8.221519  4.541011  0.898077
 Al 11.822341  4.512834  0.872561
 Al  8.295776  8.154247  0.952101
 Al 11.893511  8.127155  0.891894
 Al  8.333608 11.739974  0.985423
 Al 11.831310 11.759903  0.892510
 Al  8.241912  0.905145  4.529819
 Al 11.807409  0.908945  4.513425
 Al  8.252340  4.526167  4.507456
 Al 11.832511  4.523523  4.505662
 Al  8.246951  8.147248  4.518505
 Al 11.840193  8.126518  4.516680
 Al  8.233655 11.748351  4.504746
 Al 11.871654 11.753672  4.520230
 Al  4.766089 13.556253  6.299699
 Al  0.829600 11.766618  4.491145
 Al  2.801658 13.655336  4.391026
 Al  4.671302  9.949933  6.384876
 Al  2.788780  9.836783  4.422901
 Al  4.691874  4.697271  7.926320
 Al  0.964807  6.330792  6.301231
 Al  2.859861 13.603690  1.015439
 Al  0.863612  8.107205  1.017465
 Al  4.707387  6.384310  2.735629
 Al  2.790296  6.084302  0.883954
 Al  4.782771  2.667605  2.688857
 Al  4.673199  4.688678  4.849467
 Al  2.731992  2.728010  0.799172
 Al  0.802401  2.712548  2.717543
 Al  4.552478 11.737515 11.724093
 Al  6.356344 11.749037 13.656490
 Al  2.651579 11.667492  9.888622
 Al  0.918650 13.570314 13.486483
 Al  6.258860  8.168766 13.548493
 Al  0.900715 10.085399 13.494768
 Al  2.871505  8.135259 13.459336
 Al  4.735105  4.672452 11.704006
 Al  4.812357  2.622447 13.557200
 Al  2.677994  2.572269 11.711754
 Al  2.694390 13.618423  8.090166
 Al  6.275806  8.158946  9.897414
 Al  2.768460  8.140638  9.894312
 Al  2.732073  2.583370  8.029221
 Al  2.761079  2.645465  4.700760
 Al  2.627708  4.657423  9.877522
 Ni  8.216985  2.702537  9.930938
 Ni 10.035906  0.895853  9.939096
 Ni 10.052941  2.709611  8.151173
 Ni 11.851043  2.712927  9.936943
 Ni 13.645796  0.903663  9.914791
 Ni 13.618410  2.721346  8.123812
 Ni  8.239082  6.415993  9.916863
 Ni 10.048262  4.531508  9.946179
 Ni 10.079118  6.337422  8.132402
 Ni 11.867658  6.329457  9.947392
 Ni 13.665004  4.521705  9.937479
 Ni 13.648906  6.345604  8.127425
 Ni  8.230001  9.886141  9.930026
 Ni 10.088625  8.149101  9.917129
 Ni 10.048574  9.958792  8.115416
 Ni 11.857558  9.963032  9.909750
 Ni 13.639396  8.146484  9.929384
 Ni 13.664443  9.943292  8.100060
 Ni  8.211597 13.557133  9.942208
 Ni 10.055563 11.748399  9.916009
 Ni 10.023555 13.553796  8.126298
 Ni 11.843117 13.556986  9.909778
 Ni 13.680329 11.759989  9.899567
 Ni 13.661447 13.549191  8.111406
 Ni  6.511255  2.701479  0.890048
 Ni 10.013481  0.907468 13.527020
 Ni 10.021818  2.718943 11.725095
 Ni 11.821309  2.721293 13.517642
 Ni 13.642610  0.924071 13.529871
 Ni 13.657838  2.706531 11.721221
 Ni  8.232129  6.415209 13.542640
 Ni 10.005989  4.526158 13.530557
 Ni 10.049716  6.330956 11.737532
 Ni 11.847301  6.313322 13.545996
 Ni 13.660058  4.518229 13.540324
 Ni 13.674959  6.335001 11.752673
 Ni  8.223179  9.959446 13.561533
 Ni 10.079526  8.151991 13.567261
 Ni 10.078643  9.958457 11.740001
 Ni 11.881468  9.936733 13.551103
 Ni 13.702408  8.125415 13.549592
 Ni 13.648614  9.956360 11.706128
 Ni  8.226620 13.466093 13.543561
 Ni 10.068764 11.738414 13.542208
 Ni 10.040669 13.550547 11.737380
 Ni 11.841229 13.593018 13.541106
 Ni 13.608855 11.792336 13.562437
 Ni 13.617251 13.563922 11.694069
 Ni  8.220506  2.712202  2.724490
 Ni 10.024973  0.909838  2.697365
 Ni 10.002267  2.713954  0.877427
 Ni 11.838725  2.715583  2.690484
 Ni 13.619971  0.877593  2.696109
 Ni 13.612076  2.707860  0.842429
 Ni  8.212773  6.338709  2.702759
 Ni 10.025154  4.520092  2.692912
 Ni 10.033428  6.330645  0.887566
 Ni 11.825069  6.323481  2.689529
 Ni 13.618396  4.545111  2.690359
 Ni 13.654730  6.288976  0.889628
 Ni  8.247632  9.948013  2.714376
 Ni 10.057751  8.134751  2.714974
 Ni 10.067738  9.937940  0.896789
 Ni 11.851401  9.940001  2.705915
 Ni 13.629408  8.109773  2.745339
 Ni 13.665297  9.969786  0.910334
 Ni  8.249868 13.551895  2.700888
 Ni 10.073315 11.751158  2.732542
 Ni 10.046580 13.565685  0.879922
 Ni 11.822222 13.566893  2.698815
 Ni 13.632851 11.778725  2.668860
 Ni 13.634536 13.578042  0.901957
 Ni  8.265841  2.697021  6.355310
 Ni 10.034002  0.892343  6.340610
 Ni 10.038184  2.715560  4.516690
 Ni 11.817382  2.703098  6.340395
 Ni 13.629675  0.904751  6.319206
 Ni 13.593811  2.713976  4.547478
 Ni  8.266567  6.337668  6.336430
 Ni 10.048466  4.524106  6.332391
 Ni 10.039395  6.326867  4.507280
 Ni 11.858862  6.327704  6.309321
 Ni 13.626393  4.510218  6.309902
 Ni 13.642025  6.309212  4.483758
 Ni  8.222953  9.944046  6.302420
 Ni 10.073471  8.142069  6.303472
 Ni 10.051922  9.948679  4.515005
 Ni 11.844052  9.953004  6.314146
 Ni 13.660965  8.155007  6.283837
 Ni 13.637522  9.919401  4.496389
 Ni  8.212626 13.560629  6.332066
 Ni 10.028694 11.752318  6.317296
 Ni 10.031507 13.560148  4.522910
 Ni 11.838314 13.557054  6.324696
 Ni 13.641197 11.741078  6.327684
 Ni 13.602943 13.601568  4.506232
 Ni  0.980134  2.712017  9.898445
 Ni  2.789538  0.887757  9.909728
 Ni  0.923096  0.907183  8.097804
 Ni  4.487918  2.848485  9.890630
 Ni  6.351592  0.900790  9.933580
 Ni  4.585209  6.298112  9.863229
 Ni  4.627885  0.870460  8.137808
 Ni  0.920064  4.501587  8.112048
 Ni  0.918641  6.375747  9.912707
 Ni  4.547542  8.143892 11.696217
 Ni  6.424997  4.570589  9.873484
 Ni  6.455630  6.402176  8.078843
 Ni  2.758212  6.351095  8.075912
 Ni  0.941524  9.912489  9.921736
 Ni  4.559062  8.064156  8.029361
 Ni  2.770827  9.934882  8.057535
 Ni  4.565476  9.981170  9.880347
 Ni  6.457398  6.448409 11.716925
 Ni  6.425275  9.929033  8.138780
 Ni  0.971900 13.569064  9.902691
 Ni  4.568392 11.793533  8.116736
 Ni  0.994938 11.739062  8.057685
 Ni  4.566107 13.517631  9.914028
 Ni  6.398968 11.719942  9.903344
 Ni  6.412645 13.541556  8.173694
 Ni  2.784018 11.785045  6.226485
 Ni  0.946759  2.689040 13.518544
 Ni  2.811358  0.881063 13.553809
 Ni  0.935917  0.870178 11.701808
 Ni  6.443749  0.815023 13.528006
 Ni  6.372591  2.718514 11.663678
 Ni  4.590555  0.884167 11.706171
 Ni  1.045105  6.339633 13.574309
 Ni  2.862614  4.387692 13.427339
 Ni  2.765200  6.311796 11.725293
 Ni  0.976572  4.513439 11.739902
 Ni  4.586615  6.308997 13.565515
 Ni  8.197827  2.713223 13.499235
 Ni  6.431969  4.572740 13.550445
 Ni  0.940498 11.788965 11.704759
 Ni  0.967752  8.139307 11.752696
 Ni  4.563003 10.003096 13.571805
 Ni  6.388326  9.947178 11.740430
 Ni  2.759242  9.966725 11.737005
 Ni  2.762363 11.821072 13.598205
 Ni  2.786659 13.559141 11.694527
 Ni  4.611021 13.565379 13.537176
 Ni  6.388603 13.488693 11.732094
 Ni  0.960323  0.900606  0.880508
 Ni  6.454240  0.868336  2.719528
 Ni  4.653074  0.916461  0.907583
 Ni  1.007325  6.245799  2.702703
 Ni  0.951348  4.465035  0.874812
 Ni  2.865568  4.346854  2.812225
 Ni  6.377840  4.538208  2.742746
 Ni  6.424914  6.366989  0.874264
 Ni  4.655843  4.476740  0.883875
 Ni  0.960236  9.956022  2.713832
 Ni  2.780467  8.048304  2.650226
 Ni  2.697373  9.907626  0.845386
 Ni  4.594676  9.911439  2.679106
 Ni  6.422158  8.167728  2.718246
 Ni  6.405565  9.927332  0.914613
 Ni  4.532951  8.133434  0.920411
 Ni  0.958717 13.614903  2.713537
 Ni  2.760792 11.730140  2.764944
 Ni  0.985613 11.817305  0.948397
 Ni  4.650790 13.572286  2.722670
 Ni  6.401489 11.735761  2.699155
 Ni  6.409460 13.531630  0.914832
 Ni  4.559827 11.729025  0.955458
 Ni  0.904845  2.702710  6.325373
 Ni  2.817809  0.794702  6.294381
 Ni  2.790870  1.115341  2.704346
 Ni  0.940740  0.920289  4.518662
 Ni  4.647001  2.696264  6.367979
 Ni  6.431097  0.941466  6.335982
 Ni  6.438107  2.730964  4.565695
 Ni  4.666432  0.911139  4.516721
 Ni  0.958093  8.166548  8.095708
 Ni  2.726523  4.502996  6.347302
 Ni  2.820890  6.309350  4.487881
 Ni  0.962193  4.491589  4.502085
 Ni  6.414300  2.707994  8.160291
 Ni  6.450477  6.342976  4.567995
 Ni  6.545913  4.511365  6.353379
 Ni  0.996684  9.934525  6.257326
 Ni  2.789046  8.132531  6.281549
 Ni  0.979533  8.093392  4.457900
 Ni  6.414047  8.107043  6.306995
 Ni  6.405423  9.937287  4.486261
 Ni  4.628915  8.124479  4.552876
 Ni  0.943214 13.562735  6.269369
 Ni  4.629502 11.728110  4.485409
 Ni  6.437931 11.734764  6.312457
 Ni  6.457839 13.549863  4.477252
%endblock positions_abs_product 
%block positions_abs_intermediate 
     ang 
Al  8.224416  0.893968  8.146151
 Al 11.839130  0.884193  8.126711
 Al  8.243309  4.529455  8.140208
 Al 11.853235  4.529033  8.137638
 Al  8.312540  8.152217  8.046298
 Al 11.874460  8.144584  8.104856
 Al  8.227246 11.742332  8.129978
 Al 11.852212 11.753087  8.109373
 Al  8.212382  0.876312 11.724781
 Al 11.833299  0.908364 11.720855
 Al  8.208102  4.545473 11.714043
 Al 11.855734  4.518787 11.727986
 Al  8.371477  8.171534 11.746276
 Al 11.866671  8.131016 11.741684
 Al  8.277900 11.718874 11.662306
 Al 11.864778 11.756178 11.721564
 Al  8.237369  0.869494  0.872652
 Al 11.825822  0.916876  0.878176
 Al  8.233803  4.535951  0.885702
 Al 11.824916  4.509379  0.871384
 Al  8.297760  8.150993  0.950227
 Al 11.894650  8.125429  0.889466
 Al  8.335219 11.737576  0.986058
 Al 11.831803 11.756664  0.890629
 Al  8.243791  0.904696  4.526169
 Al 11.808554  0.907050  4.513567
 Al  8.252395  4.517141  4.513614
 Al 11.834537  4.522239  4.504806
 Al  8.243620  8.142741  4.511721
 Al 11.840296  8.122196  4.517615
 Al  8.232772 11.748262  4.498682
 Al 11.872242 11.751876  4.519768
 Al  4.766582 13.558059  6.291971
 Al  0.828685 11.767262  4.488960
 Al  2.803324 13.657086  4.385609
 Al  4.670031  9.954334  6.374761
 Al  2.786044  9.837948  4.413351
 Al  4.709018  4.604126  8.011087
 Al  0.964851  6.322916  6.308762
 Al  2.858142 13.608319  1.017179
 Al  0.862058  8.105413  1.016053
 Al  4.692541  6.296870  2.792523
 Al  2.793671  6.082502  0.886669
 Al  4.783451  2.703120  2.701833
 Al  4.639647  5.523030  5.507071
 Al  2.729910  2.722363  0.796033
 Al  0.798099  2.709124  2.717345
 Al  4.551845 11.738925 11.730491
 Al  6.358332 11.746668 13.658923
 Al  2.652980 11.670455  9.888062
 Al  0.917585 13.566995 13.484716
 Al  6.256385  8.165506 13.552244
 Al  0.901137 10.082949 13.492782
 Al  2.874845  8.132814 13.463128
 Al  4.735180  4.667700 11.709682
 Al  4.812666  2.617827 13.558935
 Al  2.675793  2.565933 11.716167
 Al  2.696162 13.621189  8.083450
 Al  6.276264  8.156264  9.896758
 Al  2.767620  8.141755  9.897582
 Al  2.729768  2.573261  8.031727
 Al  2.792289  2.692300  4.696012
 Al  2.622386  4.649515  9.888446
 Ni  8.217515  2.697911  9.928675
 Ni 10.036154  0.892541  9.935268
 Ni 10.047381  2.710456  8.146837
 Ni 11.851315  2.711355  9.930496
 Ni 13.645471  0.900002  9.910612
 Ni 13.623487  2.720163  8.119530
 Ni  8.233947  6.411081  9.912035
 Ni 10.039551  4.528956  9.937592
 Ni 10.071220  6.331817  8.128340
 Ni 11.865142  6.326969  9.943700
 Ni 13.669375  4.519703  9.933501
 Ni 13.650422  6.342466  8.127628
 Ni  8.227803  9.881900  9.927455
 Ni 10.084840  8.144793  9.912859
 Ni 10.044076  9.953887  8.111939
 Ni 11.856730  9.959111  9.905369
 Ni 13.641757  8.144372  9.925838
 Ni 13.666767  9.940477  8.097473
 Ni  8.210854 13.553888  9.940520
 Ni 10.053558 11.744654  9.911934
 Ni 10.023322 13.550526  8.122890
 Ni 11.842410 13.552760  9.905388
 Ni 13.680608 11.757192  9.895716
 Ni 13.661195 13.547707  8.108585
 Ni  6.514038  2.695404  0.887613
 Ni 10.016324  0.903895 13.523950
 Ni 10.022454  2.715498 11.721264
 Ni 11.822713  2.717886 13.512473
 Ni 13.642534  0.920001 13.526410
 Ni 13.657259  2.702796 11.717399
 Ni  8.231536  6.412964 13.545289
 Ni 10.012346  4.523117 13.526753
 Ni 10.048358  6.328848 11.734979
 Ni 11.849103  6.311642 13.539270
 Ni 13.656141  4.515502 13.534037
 Ni 13.676010  6.333646 11.748378
 Ni  8.223677  9.956762 13.561381
 Ni 10.080821  8.149505 13.564269
 Ni 10.077977  9.954821 11.736918
 Ni 11.882022  9.933254 13.547576
 Ni 13.702663  8.124115 13.546234
 Ni 13.648715  9.954289 11.702593
 Ni  8.228891 13.462366 13.543147
 Ni 10.070499 11.734860 13.540173
 Ni 10.041014 13.546750 11.734287
 Ni 11.841611 13.589360 13.537565
 Ni 13.607653 11.789308 13.559618
 Ni 13.616541 13.560083 11.689506
 Ni  8.232504  2.703074  2.719728
 Ni 10.031780  0.905461  2.695890
 Ni 10.009538  2.709625  0.874183
 Ni 11.841668  2.712338  2.690022
 Ni 13.619690  0.874951  2.695796
 Ni 13.610816  2.703809  0.838947
 Ni  8.226909  6.336637  2.693005
 Ni 10.028059  4.516120  2.691437
 Ni 10.041376  6.328655  0.882213
 Ni 11.824829  6.320616  2.689337
 Ni 13.618516  4.541054  2.689172
 Ni 13.650701  6.286538  0.884522
 Ni  8.245275  9.941317  2.710803
 Ni 10.061603  8.133394  2.713505
 Ni 10.069160  9.934889  0.895434
 Ni 11.852160  9.938320  2.704836
 Ni 13.626607  8.107874  2.743558
 Ni 13.664747  9.968204  0.908174
 Ni  8.250910 13.554017  2.698032
 Ni 10.073010 11.748313  2.731498
 Ni 10.049161 13.562466  0.878462
 Ni 11.823057 13.562642  2.698237
 Ni 13.633194 11.777011  2.668185
 Ni 13.634065 13.575199  0.900306
 Ni  8.257040  2.705481  6.351137
 Ni 10.031215  0.893082  6.338074
 Ni 10.041670  2.713394  4.516571
 Ni 11.817330  2.700697  6.340778
 Ni 13.634648  0.905707  6.317330
 Ni 13.594778  2.711858  4.548990
 Ni  8.253209  6.324378  6.334226
 Ni 10.050107  4.522433  6.332427
 Ni 10.036276  6.323015  4.508205
 Ni 11.859033  6.326515  6.309335
 Ni 13.626389  4.507441  6.310845
 Ni 13.643913  6.305141  4.484134
 Ni  8.224178  9.946285  6.296865
 Ni 10.065676  8.137164  6.301166
 Ni 10.051484  9.945722  4.512232
 Ni 11.842266  9.948576  6.312696
 Ni 13.664315  8.152659  6.283679
 Ni 13.637886  9.916915  4.495048
 Ni  8.213495 13.558043  6.327428
 Ni 10.030262 11.751128  6.314297
 Ni 10.032568 13.558561  4.520609
 Ni 11.838769 13.558542  6.323626
 Ni 13.639769 11.740796  6.326028
 Ni 13.604962 13.602228  4.505685
 Ni  0.979036  2.706811  9.899438
 Ni  2.789381  0.881620  9.911617
 Ni  0.922913  0.905121  8.094765
 Ni  4.489483  2.827336  9.912517
 Ni  6.354123  0.894430  9.934850
 Ni  4.586251  6.296290  9.877057
 Ni  4.626070  0.865087  8.133987
 Ni  0.932740  4.498960  8.108652
 Ni  0.923090  6.374462  9.909625
 Ni  4.548792  8.143915 11.697440
 Ni  6.435185  4.562362  9.892470
 Ni  6.428024  6.386342  8.080063
 Ni  2.779787  6.344457  8.080738
 Ni  0.943027  9.911892  9.920736
 Ni  4.554887  8.098796  8.048560
 Ni  2.767964  9.942036  8.057505
 Ni  4.566144  9.987081  9.885676
 Ni  6.459392  6.445624 11.719818
 Ni  6.423873  9.929170  8.135186
 Ni  0.972627 13.567555  9.899821
 Ni  4.569180 11.793820  8.112913
 Ni  0.995263 11.741876  8.055719
 Ni  4.567758 13.516304  9.912306
 Ni  6.398690 11.718195  9.902041
 Ni  6.413056 13.539737  8.169271
 Ni  2.784824 11.786172  6.222302
 Ni  0.944502  2.684581 13.515636
 Ni  2.811129  0.876578 13.554540
 Ni  0.934732  0.864729 11.699962
 Ni  6.446001  0.810716 13.528596
 Ni  6.378053  2.710555 11.669777
 Ni  4.591408  0.876271 11.709685
 Ni  1.044815  6.339190 13.572766
 Ni  2.865014  4.384553 13.429845
 Ni  2.766262  6.310619 11.728307
 Ni  0.976110  4.510221 11.742438
 Ni  4.588148  6.304915 13.569307
 Ni  8.201996  2.708824 13.499176
 Ni  6.431682  4.568782 13.552545
 Ni  0.940711 11.786766 11.702554
 Ni  0.969208  8.137761 11.751714
 Ni  4.564004  9.999461 13.577685
 Ni  6.387818  9.946363 11.742127
 Ni  2.760582  9.965700 11.739307
 Ni  2.761929 11.820603 13.601438
 Ni  2.787032 13.556036 11.695222
 Ni  4.612394 13.565852 13.542018
 Ni  6.389441 13.483652 11.733196
 Ni  0.959214  0.897557  0.879500
 Ni  6.451235  0.874358  2.713308
 Ni  4.651749  0.923309  0.914703
 Ni  0.997896  6.241767  2.694872
 Ni  0.943968  4.463846  0.860668
 Ni  2.823254  4.339826  2.780938
 Ni  6.431107  4.527150  2.719840
 Ni  6.420987  6.360251  0.880211
 Ni  4.660495  4.476449  0.896123
 Ni  0.958487  9.955178  2.711219
 Ni  2.779466  8.037817  2.649749
 Ni  2.698332  9.902277  0.846393
 Ni  4.593628  9.915511  2.666641
 Ni  6.412881  8.149867  2.710080
 Ni  6.405340  9.921787  0.915085
 Ni  4.533766  8.112045  0.935147
 Ni  0.958612 13.616492  2.714033
 Ni  2.759755 11.731557  2.760754
 Ni  0.984740 11.814689  0.947031
 Ni  4.651165 13.576628  2.720613
 Ni  6.401423 11.736776  2.694266
 Ni  6.411104 13.533044  0.914398
 Ni  4.559322 11.734249  0.953070
 Ni  0.919217  2.709760  6.320045
 Ni  2.817875  0.802424  6.280506
 Ni  2.794701  1.126169  2.710306
 Ni  0.948424  0.928509  4.518185
 Ni  4.651134  2.682179  6.365629
 Ni  6.436130  0.935140  6.330719
 Ni  6.449305  2.722397  4.559108
 Ni  4.669189  0.927492  4.510950
 Ni  0.963413  8.163115  8.094980
 Ni  2.778296  4.514413  6.354580
 Ni  2.791732  6.292011  4.479857
 Ni  0.965995  4.488731  4.508610
 Ni  6.419297  2.693674  8.159174
 Ni  6.471668  6.330501  4.541174
 Ni  6.472515  4.507878  6.316957
 Ni  0.995040  9.937948  6.255676
 Ni  2.780404  8.140928  6.277670
 Ni  0.977037  8.091566  4.455196
 Ni  6.418726  8.120247  6.296952
 Ni  6.404155  9.935740  4.473989
 Ni  4.628051  8.135526  4.510152
 Ni  0.943480 13.563782  6.265332
 Ni  4.628958 11.728464  4.479251
 Ni  6.437953 11.734724  6.304145
 Ni  6.456538 13.553348  4.471353
%endblock positions_abs_intermediate 
     kpoint_mp_grid 1 1 1 
     fix_com : false