#######################################################
#CASTEP cell file: /home/u2093113/Documents/kART/barriers/CASTEP/castep.cell
#Created using the Atomic Simulation Environment (ASE)#
#######################################################

%BLOCK LATTICE_CART
14.464828  0.000000  0.000000
 0.000000 14.464828  0.000000
 0.000000  0.000000 14.464828
%ENDBLOCK LATTICE_CART

%BLOCK POSITIONS_ABS
Ni  8.217229  6.242723 13.559562
Ni 10.041322  4.452738 13.570285
Ni 10.033560  6.269873 11.769744
Al  8.255131  4.446651 11.774489
Ni 11.824150  6.272283 13.577117
Ni 13.629940  4.474716 13.568544
Ni 13.626249  6.278901 11.757659
Al 11.835796  4.472639 11.756373
Ni  8.165914  9.950056 13.612734
Ni 10.024606  8.084851 13.569788
Ni 10.031938  9.880708 11.773982
Al  8.243351  8.089681 11.794293
Ni 11.840523  9.879933 13.569783
Ni 13.624930  8.076335 13.571377
Ni 13.633346  9.875998 11.755971
Al 11.826332  8.074826 11.762721
Ni  8.234382 13.490105 13.533032
Ni 10.065769 11.701067 13.553585
Ni 10.074346 13.513177 11.741337
Al  8.321801 11.711199 11.714811
Ni 11.863900 13.504061 13.555460
Ni 13.636385 11.685918 13.563478
Ni 13.644556 13.497537 11.749564
Al 11.848087 11.684655 11.750159
Ni  8.230739  2.639666 13.557547
Ni 10.071729  0.843721 13.545834
Ni 10.050809  2.656217 11.752210
Al  8.277479  0.845378 11.760007
Ni 11.849728  2.661381 13.562284
Ni 13.643252  0.851453 13.561121
Ni 13.640861  2.669497 11.752816
Al 11.860644  0.855515 11.745128
Ni  8.129446  6.249315  2.760068
Ni 10.006449  4.447209  2.713098
Ni 10.009837  6.246292  0.927525
Al  8.239287  4.425621  0.900111
Ni 11.813747  6.272648  2.723195
Ni 13.628906  4.474740  2.724755
Ni 13.622351  6.277231  0.916589
Al 11.829458  4.464672  0.918168
Ni  8.155530  9.960729  2.648403
Ni  9.990631  8.084068  2.714612
Ni 10.034060  9.893039  0.908552
Al  8.293439  8.026162  0.888566
Ni 11.827228  9.878790  2.721934
Ni 13.622929  8.077710  2.722874
Ni 13.629279  9.878791  0.914747
Al 11.813297  8.072787  0.918737
Ni  8.218165 13.524384  2.747507
Ni 10.051242 11.708402  2.728806
Ni 10.088494 13.523205  0.906767
Al  8.351025 11.779901  0.906691
Ni 11.862126 13.502562  2.728085
Ni 13.635150 11.684815  2.725331
Ni 13.640179 13.499504  0.911042
Al 11.849408 11.692282  0.912638
Ni  8.229922  2.571717  2.716701
Ni 10.059268  0.833967  2.726592
Ni 10.052560  2.643444  0.907032
Al  8.308085  0.826221  0.852094
Ni 11.842698  2.660142  2.722234
Ni 13.643927  0.850720  2.726187
Ni 13.636681  2.664734  0.912609
Al 11.860658  0.852968  0.909849
Ni  8.152723  6.274700  6.260704
Ni 10.018491  4.478262  6.331825
Ni  9.994389  6.273187  4.511273
Al  8.249103  4.431075  4.508295
Ni 11.811479  6.282892  6.327915
Ni 13.631046  4.482976  6.334104
Ni 13.624782  6.281139  4.528135
Al 11.818843  4.477441  4.525953
Ni  8.207815  9.901645  6.351881
Ni  9.988246  8.076098  6.326348
Ni 10.006400  9.878860  4.513513
Al  8.206567  8.096182  4.499228
Ni 11.822975  9.865741  6.331780
Ni 13.626341  8.076609  6.331737
Ni 13.629462  9.875295  4.530018
Al 11.804582  8.075697  4.522166
Ni  8.252320 13.491813  6.368197
Ni 10.056717 11.682203  6.357096
Ni 10.081719 13.497908  4.547384
Al  8.312301 11.707860  4.567688
Ni 11.862448 13.492468  6.348953
Ni 13.638083 11.677997  6.337457
Ni 13.641932 13.496226  4.535907
Al 11.840503 11.678138  4.535628
Ni  8.263862  2.636589  6.352786
Ni 10.090054  0.843347  6.365930
Ni 10.060107  2.657617  4.532324
Al  8.348179  0.830727  4.611706
Ni 11.845193  2.676196  6.343075
Ni 13.642833  0.852390  6.339837
Ni 13.634152  2.668670  4.532365
Al 11.855700  0.851399  4.537818
Ni  8.216178  6.274762  9.990791
Ni 10.027876  4.469305  9.957511
Ni  9.987061  6.283569  8.131543
Al  8.268567  4.464278  8.151338
Ni 11.819551  6.278758  9.944837
Ni 13.633903  4.481255  9.943942
Ni 13.627762  6.281856  8.137358
Al 11.819443  4.487271  8.140217
Ni  8.218761  9.898213  9.964295
Ni 10.016349  8.077673  9.963774
Ni 10.026813  9.872738  8.148025
Al  8.229596  8.085117  8.164158
Ni 11.833223  9.869174  9.951289
Ni 13.629059  8.075279  9.946923
Ni 13.631708  9.870415  8.139979
Al 11.811424  8.069850  8.137777
Ni  8.239156 13.513980  9.938561
Ni 10.063072 11.689203  9.939198
Ni 10.067534 13.496217  8.153087
Al  8.255136 11.694839  8.158425
Ni 11.861052 13.501740  9.943808
Ni 13.638897 11.680699  9.946430
Ni 13.649613 13.495713  8.142980
Al 11.849919 11.675448  8.144857
Ni  8.226697  2.638551  9.952314
Ni 10.057833  0.851831  9.944689
Ni 10.051592  2.664859  8.153747
Al  8.281936  0.838160  8.138595
Ni 11.848624  2.671141  9.946923
Ni 13.650329  0.853225  9.944146
Ni 13.641385  2.675024  8.140750
Al 11.861626  0.854704  8.151164
Ni  1.031632  6.231549 13.508929
Ni  2.773154  4.425469 13.519167
Al  4.754221  2.639385  9.893241
Ni  0.933747  4.421564 11.696684
Ni  4.517224  6.250681 13.523856
Ni  6.406651  4.423090 13.568447
Ni  4.587047  8.070016 11.742405
Ni  4.630606  4.401537 11.737466
Al  0.814498  0.836522  8.065315
Ni  0.948998  8.109711 11.665516
Ni  0.946619  9.941955 13.548626
Al  2.791491  2.752785  8.022573
Ni  4.555697  9.904716 13.502459
Ni  6.398748  8.074581 13.549440
Ni  6.431212  9.933979 11.799611
Ni  2.749221  9.931614 11.728230
Ni  0.954386 13.516699 13.535306
Ni  4.577786 11.760735 11.750174
Ni  2.746622 13.547680 11.683665
Al  4.650100 13.531342  9.969256
Ni  4.537330 13.582091 13.524374
Ni  4.603721 11.733854  0.862924
Ni  6.434577 13.539319 11.745794
Al  2.787150 13.445715  8.022190
Ni  0.948056  2.620176 13.512244
Ni  4.565279  0.895026 11.709825
Ni  0.965116  0.847315 11.656766
Ni  4.551799  2.602124 13.535312
Ni  6.412012  0.825611 13.560184
Ni  6.438222  2.630656 11.766287
Ni  2.791385  0.885005  9.809627
Ni  0.946402  6.228985  2.715487
Ni  2.815805  4.441574  2.732723
Al  4.608243  9.980332 10.035848
Ni  0.925310  4.401206  0.895269
Al  1.081351  9.945701  9.823579
Ni  6.475129  4.383882  2.694143
Ni  6.420992  6.255955  0.858584
Ni  4.628679  4.434464  0.892693
Ni  1.039552  9.888706  2.748857
Ni  2.806622  7.989771  2.659632
Ni  2.783723  9.879259  0.884058
Ni  0.968168  8.068782  0.887282
Ni  4.577086  9.838051  2.719491
Ni  6.448274  8.102187  2.659856
Al  2.873837  2.728362  4.661297
Ni  4.549026  7.995589  0.856067
Ni  0.968652  0.878107  0.917594
Al  0.973937 11.650702  4.563275
Ni  1.017422 11.770006  0.961167
Ni  4.557098 13.566466  2.745093
Ni  6.423278 13.544853  0.922526
Ni  2.766549 13.562466  0.913117
Al  4.717022  9.907977  6.342823
Al  2.811667  9.654493  4.530564
Ni  2.816612  0.924907  2.763137
Ni  2.764483  2.663467  0.884089
Ni  4.599950  2.645929  2.737992
Ni  6.419044  2.583624  0.908705
Al  4.878315  6.201630  6.224581
Al  4.752318  8.028284  8.238226
Al  2.780572  6.261215  4.432332
Al  0.923053  6.298021  6.336737
Ni  0.945189  4.476319  4.548526
Ni  6.517528  4.416187  6.314401
Ni  4.709481  4.490491  4.502217
Al  4.593098  0.873390  0.894830
Al  6.370582  0.825332  2.814890
Al  2.688480  0.794137 13.526431
Ni  0.970742  9.813636  6.342118
Al  0.990904  2.678513  2.767981
Ni  0.936018  8.040957  4.541735
Ni  2.897356  7.923201  6.387075
Ni  6.463322  8.104694  6.336714
Ni  6.437714  9.917375  4.487065
Ni  4.712074  7.998729  4.520335
Al  6.270148 11.784019  2.738709
Ni  0.942038 13.477651  6.308162
Ni  2.798116 11.608043  6.280674
Ni  2.772560 13.496087  4.555856
Al  1.026145 13.670690  2.776085
Ni  4.604820 13.477625  6.338660
Ni  6.449227 11.709440  6.314460
Ni  6.427531 13.502822  4.554545
Ni  4.571866 11.658779  4.532645
Al  2.914279 11.694921  2.628669
Ni  0.948924  2.694937  6.313207
Ni  2.768566  0.857219  6.376721
Al  6.250919  9.804065  0.865787
Ni  0.991158  0.902129  4.568616
Ni  4.641716  2.690536  6.361776
Ni  6.455701  0.832068  6.323780
Ni  6.447499  2.618129  4.543618
Ni  4.601283  0.862085  4.593229
Ni  0.961039  6.240668  9.902221
Ni  2.819479  4.381180  9.905852
Ni  2.829206  4.603373  6.318692
Ni  0.924575  4.469941  8.074635
Ni  4.639724  6.240790  9.966568
Ni  6.478491  4.451085  9.967054
Ni  6.481441  6.256591  8.161111
Ni  4.690156  4.483804  8.131318
Al  4.839082  6.231841  2.731203
Ni  0.972289 11.730068 11.689615
Ni  2.812848  8.077961  9.942727
Ni  2.892153  9.837169  8.101822
Ni  0.961246  8.061288  8.128907
Al  2.726740  6.150052  0.912137
Ni  6.403183  6.246370 11.795501
Ni  6.418251  9.904644  8.185698
Ni  6.442575  8.099811 10.028373
Al  2.706446  2.695411 11.676444
Ni  0.986233 13.488687  9.837487
Ni  2.818077 11.738555  9.897619
Al  6.282835 11.816887 13.525348
Ni  0.965271 11.674462  8.065658
Al  2.773232 11.738924 13.559721
Ni  6.437250 11.725544  9.985505
Ni  6.434464 13.507917  8.138125
Ni  4.646984 11.708448  8.142331
Al  2.771295  6.164108 11.648043
Al  2.799337  6.181526  8.259838
Ni  0.961037  2.649359  9.839062
Al  2.732556  8.174951 13.511164
Ni  4.633551  0.836996  8.113713
Ni  6.456337  0.832428  9.943943
Ni  6.466775  2.639050  8.121882
%ENDBLOCK POSITIONS_ABS

FIX_ALL_CELL: TRUE
KPOINT_MP_GRID: 1 1 1
