#######################################################
#CASTEP cell file: /home/u2093113/Documents/kART/barriers/CASTEP/castep.cell
#Created using the Atomic Simulation Environment (ASE)#
#######################################################

%BLOCK LATTICE_CART
14.464828  0.000000  0.000000
 0.000000 14.464828  0.000000
 0.000000  0.000000 14.464828
%ENDBLOCK LATTICE_CART

%BLOCK POSITIONS_ABS
Ni  4.563545  6.271428  2.686741
Ni  6.387620  4.481456  2.697443
Ni  6.379856  6.298575  0.896880
Al  4.601418  4.475375  0.901616
Ni  8.170452  6.300987  2.704254
Ni  9.976250  4.503441  2.695660
Ni  9.972547  6.307616  0.884773
Al  8.182091  4.501363  0.883492
Ni 11.770178  6.309407  2.695686
Ni 13.563146  4.502031  2.694538
Ni 13.572695  6.308267  0.888756
Al 11.774323  4.507225  0.883562
Ni  4.512271  9.978765  2.739886
Ni  6.370924  8.113549  2.696943
Ni  6.378267  9.909408  0.901117
Al  4.589676  8.118380  0.921441
Ni  8.186835  9.908638  2.696908
Ni  9.971231  8.105045  2.698494
Ni  9.979644  9.904710  0.883087
Al  8.172633  8.103523  0.889845
Ni 11.775339  9.908386  2.690928
Ni 13.575635  8.108850  2.694015
Ni 13.587369  9.912414  0.880897
Al 11.779367  8.109302  0.883789
Ni  4.580732 13.518842  2.660150
Ni  6.412113 11.729791  2.680708
Ni  6.420676 13.541919  0.868458
Al  4.668160 11.739921  0.841947
Ni  8.210223 13.532799  2.682572
Ni  9.982686 11.714638  2.690586
Ni  9.990864 13.526269  0.876676
Al  8.194399 11.713378  0.877279
Ni 11.772237 13.525350  2.686825
Ni 13.570245 11.716815  2.687114
Ni 13.571049 13.528024  0.881679
Al 11.781564 11.711907  0.878735
Ni  4.577043  2.668401  2.684709
Ni  6.418054  0.872465  2.672955
Ni  6.397109  2.684960  0.879328
Al  4.623798  0.874123  0.887133
Ni  8.196034  2.690118  2.689408
Ni  9.989564  0.880188  2.688230
Ni  9.987170  2.698234  0.879928
Al  8.206957  0.884263  0.872241
Ni 11.770130  2.695199  2.691525
Ni 13.556535  0.879479  2.685628
Ni 13.563936  2.692116  0.884992
Al 11.776156  0.878384  0.879165
Ni  4.475737  6.278031  6.352087
Ni  6.352749  4.475911  6.305086
Ni  6.356144  6.274993  4.519523
Al  4.585591  4.454326  4.492109
Ni  8.160059  6.301352  6.315166
Ni  9.975227  4.503458  6.316706
Ni  9.968660  6.305945  4.508540
Al  8.175769  4.493385  4.510137
Ni 11.772229  6.311162  6.313627
Ni 13.567134  4.505370  6.305345
Ni 13.569813  6.309868  4.502825
Al 11.770661  4.505252  4.504165
Ni  4.501875  9.989468  6.240374
Ni  6.336958  8.112782  6.306589
Ni  6.380395  9.921754  4.500518
Al  4.639770  8.054870  4.480578
Ni  8.173552  9.907510  6.313889
Ni  9.969237  8.106426  6.314825
Ni  9.975584  9.907505  4.506689
Al  8.159608  8.101490  4.510702
Ni 11.777386  9.909107  6.316976
Ni 13.578477  8.111696  6.310935
Ni 13.570667  9.909882  4.501114
Al 11.773802  8.109275  4.504852
Ni  4.564487 13.553112  6.339473
Ni  6.397587 11.737136  6.320764
Ni  6.434837 13.551946  4.498717
Al  4.697390 11.808631  4.498645
Ni  8.208452 13.531298  6.320040
Ni  9.981460 11.713538  6.317272
Ni  9.986490 13.528232  4.502977
Al  8.195733 11.721005  4.504583
Ni 11.775354 13.524518  6.314688
Ni 13.573763 11.714320  6.310873
Ni 13.554139 13.527574  4.493038
Al 11.774773 11.713632  4.502333
Ni  4.576229  2.600384  6.308674
Ni  6.405588  0.862688  6.318555
Ni  6.398865  2.672167  4.499010
Al  4.654390  0.854946  4.444064
Ni  8.189019  2.688859  6.314194
Ni  9.990252  0.879447  6.318129
Ni  9.982999  2.693462  4.504552
Al  8.206981  0.881706  4.501801
Ni 11.770722  2.695886  6.313464
Ni 13.557697  0.882035  6.303516
Ni 13.559519  2.694427  4.498682
Al 11.771571  0.878460  4.500642
Ni  4.499015  6.303434  9.852620
Ni  6.364778  4.506963  9.923765
Ni  6.340688  6.301889  8.103238
Al  4.595363  4.459747  8.100257
Ni  8.157784  6.311601  9.919862
Ni  9.977365  4.511696  9.926051
Ni  9.971097  6.309856  8.120085
Al  8.165157  4.506148  8.117912
Ni 11.783674  6.315715  9.926080
Ni 13.576949  4.506696  9.923140
Ni 13.579848  6.316532  8.114958
Al 11.778878  4.508458  8.120487
Ni  4.554129  9.930381  9.943844
Ni  6.334550  8.104814  9.918299
Ni  6.352742  9.907598  8.105476
Al  4.552886  8.124939  8.091202
Ni  8.169287  9.894464  9.923738
Ni  9.972647  8.105328  9.923684
Ni  9.975771  9.904018  8.121968
Al  8.150895  8.104412  8.114126
Ni 11.785794  9.907403  9.928867
Ni 13.601269  8.118802  9.930217
Ni 13.595286  9.913773  8.125300
Al 11.783845  8.112330  8.122467
Ni  4.598638 13.520526  9.960171
Ni  6.403053 11.710949  9.949070
Ni  6.428047 13.526646  8.139352
Al  4.658629 11.736612  8.159659
Ni  8.208774 13.521205  9.940915
Ni  9.984395 11.706722  9.929411
Ni  9.988255 13.524952  8.127855
Al  8.186829 11.706875  8.127586
Ni 11.785471 13.521683  9.931205
Ni 13.594475 11.712699  9.933079
Ni 13.573204 13.523369  8.118270
Al 11.784302 11.711634  8.125165
Ni  4.610099  2.665282  9.944742
Ni  6.436361  0.872075  9.957895
Ni  6.406413  2.686319  8.124294
Al  4.694492  0.859423  8.203662
Ni  8.191510  2.704917  9.935027
Ni  9.989160  0.881118  9.931790
Ni  9.980479  2.697391  8.124315
Al  8.202031  0.880123  8.129777
Ni 11.777483  2.698267  9.926708
Ni 13.567886  0.879588  9.928488
Ni 13.567535  2.695717  8.113426
Al 11.780551  0.877398  8.123639
Ni  4.562463  6.303471 13.582729
Ni  6.374157  4.498025 13.549444
Ni  6.333340  6.312277 11.723474
Al  4.614863  4.493008 11.743272
Ni  8.165842  6.307464 13.536774
Ni  9.980213  4.509981 13.535882
Ni  9.974069  6.310574 11.729300
Al  8.165744  4.515991 11.732157
Ni 11.779976  6.312873 13.538741
Ni 13.572271  4.503816 13.545746
Ni 13.590400  6.318208 11.735116
Al 11.785810  4.511751 11.731076
Ni  4.565095  9.926931 13.556264
Ni  6.362653  8.106373 13.555719
Ni  6.373134  9.901463 11.739983
Al  4.575888  8.113835 11.756093
Ni  8.179531  9.897883 13.543240
Ni  9.975356  8.103991 13.538866
Ni  9.978012  9.899133 11.731929
Al  8.157722  8.098556 11.729720
Ni 11.783591  9.907846 13.538322
Ni 13.590004  8.114677 13.541696
Ni 13.597586  9.913412 11.736127
Al 11.786314  8.110408 11.731876
Ni  4.585481 13.542723 13.530526
Ni  6.409403 11.717932 13.531161
Ni  6.413858 13.524961 11.745058
Al  4.601466 11.723578 11.750409
Ni  8.207368 13.530481 13.535760
Ni  9.985200 11.709423 13.538379
Ni  9.995930 13.524444 11.734933
Al  8.196238 11.704179 11.736818
Ni 11.784804 13.522357 13.537441
Ni 13.592191 11.715102 13.539282
Ni 13.587926 13.521458 11.738971
Al 11.786458 11.710038 11.734177
Ni  4.572991  2.667291 13.544282
Ni  6.404141  0.880575 13.536637
Ni  6.397882  2.693583 11.745685
Al  4.628227  0.866886 11.730550
Ni  8.194929  2.699880 13.538862
Ni  9.996644  0.881961 13.536090
Ni  9.987704  2.703753 11.732696
Al  8.207942  0.883443 11.743117
Ni 11.778184  2.697755 13.537879
Ni 13.570451  0.877953 13.544462
Ni 13.572185  2.694564 11.734438
Al 11.785800  0.877728 11.733182
Al  1.100514  2.668135 13.485209
Ni  0.863559  6.279416  2.651047
Ni  2.752960  4.451815  2.695623
Ni  0.933384  8.098742  0.869550
Ni  0.976927  4.430300  0.864629
Ni  0.902055  9.933439  2.629625
Ni  2.745102  8.103291  2.676622
Ni  2.777572  9.962696  0.926775
Ni  0.924131 11.789451  0.877328
Al  0.996410 13.560036 13.561274
Ni  0.883649 13.610796  2.651515
Ni  0.950046 11.762589  4.454880
Ni  2.780918 13.568053  0.872935
Ni  0.911597  0.923757  0.836980
Ni  0.898110  2.630845  2.662466
Ni  2.758330  0.854337  2.687337
Ni  2.784531  2.659400  0.893429
Al  0.954569 10.009030 13.627847
Ni  2.821452  4.412580  6.286056
Ni  2.767313  6.284680  4.450585
Ni  0.974978  4.463181  4.484693
Ni  0.923405  9.866790  6.311466
Ni  2.794601  8.130947  6.251865
Ni  0.895358  8.024351  4.448052
Ni  0.903357 13.595222  6.337058
Ni  2.769612 13.573562  4.514476
Al  1.063343  9.936778  9.934820
Ni  0.946138  2.674706  6.330032
Ni  2.765311  2.612292  4.500693
Al  1.224432  6.230295  9.816594
Al  1.098595  8.057023 11.830179
Ni  2.863836  4.444925  9.906386
Ni  1.056090  4.519339  8.094122
Al  0.939365  0.902096  4.486820
Al  2.716828  0.854032  6.406869
Ni  2.809583  8.133397  9.928681
Ni  2.784027  9.946128  8.079045
Ni  1.058362  8.027434  8.112342
Al  2.616473 11.812786  6.330669
Ni  0.951080 13.506360  9.930596
Ni  2.795544 11.738204  9.906440
Ni  2.773784 13.531558  8.146476
Ni  0.918173 11.687515  8.124588
Al  2.597285  9.832801  4.457776
Ni  0.988264  2.719128  9.953880
Ni  2.801987  0.860730  9.915753
Ni  2.793796  2.646792  8.135567
Ni  0.947430  0.890924  8.185209
Ni  0.985992  6.269514 13.558491
Ni  2.824751  4.479860 13.558998
Ni  2.827704  6.285314 11.753039
Ni  1.036383  4.512455 11.723203
Al  1.185392  6.260638  6.323152
Ni  2.749490  6.275094  0.922629
Ni  2.764569  9.933355 11.777671
Ni  2.788889  8.128523 13.620324
Al  2.629204 11.845603  2.652477
Ni  2.783593 11.754265 13.577490
Ni  2.780763 13.536632 11.730109
Ni  0.993292 11.737199 11.734332
Ni  0.979853  0.865646 11.705754
Ni  2.802636  0.861151 13.535930
Ni  2.813087  2.667756 11.713868
%ENDBLOCK POSITIONS_ABS

FIX_ALL_CELL: TRUE
KPOINT_MP_GRID: 1 1 1
