#######################################################
#CASTEP cell file: /home/u2093113/Documents/kART/barriers/CASTEP/castep.cell
#Created using the Atomic Simulation Environment (ASE)#
#######################################################

%BLOCK LATTICE_CART
14.464828  0.000000  0.000000
 0.000000 14.464828  0.000000
 0.000000  0.000000 14.464828
%ENDBLOCK LATTICE_CART

%BLOCK POSITIONS_ABS
Ni  0.842454  2.734312  2.700061
Ni  0.838568  4.533703  0.903571
Ni  0.845861  6.335751  2.719866
Ni  0.835964  8.138839  0.916281
Ni  0.816887  9.955092  2.716164
Ni  0.842290 11.770890  0.893925
Ni  0.830829 13.587455  2.682527
Ni  0.843823  0.938595  0.891179
Ni  0.826152  2.737822  6.295141
Ni  0.841615  4.536839  4.500514
Ni  0.813647  6.330551  6.279972
Ni  0.816946  8.144078  4.492534
Ni  0.779514  9.984642  6.273285
Ni  0.798476 11.781046  4.479326
Ni  0.773101 13.578236  6.293416
Ni  0.806877  0.925248  4.482706
Ni  0.800984  2.756101  9.906192
Ni  0.809883  4.539829  8.096180
Ni  0.840557  6.320752  9.920229
Ni  0.823819  8.161360  8.091724
Ni  0.871822  9.964355  9.905835
Ni  0.774027 11.792719  8.095067
Ni  0.808209 13.608142  9.917380
Ni  0.793614  0.940338  8.107902
Ni  0.828737  2.739399 13.553411
Ni  0.813562  4.513817 11.738722
Ni  0.874680  6.329954 13.557574
Ni  0.971452  8.139132 11.740357
Ni  0.874070  9.956222 13.534406
Ni  0.821130 11.794117 11.722235
Ni  0.842044 13.606075 13.525209
Ni  0.813374  0.963092 11.721224
Ni  2.650091  4.532132  2.706073
Ni  4.433853  2.741150  2.705971
Ni  4.452900  4.529846  0.898993
Ni  2.625146  2.744852  0.890082
Ni  6.251909  4.559044  2.684914
Ni  8.000580  2.652475  2.669441
Ni  8.062964  4.528990  0.861197
Ni  6.227617  2.698073  0.898243
Ni  9.846644  4.485319  2.670129
Ni 11.687587  2.668799  2.661492
Al 13.691727  0.935018 13.538190
Ni  9.828120  2.688521  0.869677
Ni 13.506036  4.524791  2.693939
Ni 13.498914  8.212286  2.679420
Ni 13.557330  2.721486  0.893464
Ni  2.652210  8.146351  2.723770
Ni  4.452638  6.344687  2.743320
Ni  4.464511  8.164232  0.946932
Ni  2.639581  6.326622  0.926933
Ni  6.295792  8.125702  2.789536
Al  9.720972 13.593382 11.719666
Ni  9.870597  6.399379  0.887612
Ni  6.265078  6.377764  0.924773
Ni  9.871419  8.207007  2.695580
Al 11.704694  1.015445 11.702209
Al  6.071836  0.815462  2.618637
Al  6.355562 13.557863 11.711225
Ni 13.497613  9.981850  4.505535
Ni 11.704265  8.160164  0.860142
Ni  2.624328 11.752731  2.722674
Ni  4.425676  9.938960  2.757351
Al  6.110362 10.102266 11.718413
Ni  2.590800  9.940624  0.915732
Al  8.088334  0.873545  0.819794
Ni  8.068732 10.050327  2.712923
Al  4.327412 13.662884 13.501608
Ni  6.217237  9.988130  0.899415
Ni  9.882530 11.761347  2.663057
Ni 13.521066  9.956907  0.860770
Ni 11.691506 11.779845  0.818965
Al 13.604495 11.773809 13.589589
Ni 13.484585 11.792988  2.662837
Al 11.713988 11.815857 11.730656
Ni  2.649870  0.930276  2.704453
Ni  4.359974 13.538636  2.674224
Ni  4.383165  0.918135  0.857404
Ni  2.588620 13.583126  0.870991
Ni  6.177950 13.511438  0.845993
Ni  8.028478 13.514751  2.617477
Ni  6.177593 11.778787 13.555901
Ni  8.032966 13.560189 13.539685
Ni  9.864702  0.856300  2.651712
Ni 13.518199 13.604222  0.865428
Al  8.047151  8.268227  0.965000
Ni  9.888074 13.563806  0.816073
Ni 13.495086  0.868563  2.660207
Ni 11.731305 13.628133 13.475948
Ni  2.663034  4.544851  6.328799
Al  6.121259  8.113693 13.519672
Ni  4.413768  4.533181  4.552136
Ni  2.619117  2.715934  4.526385
Ni  6.237761  4.506629  6.327115
Ni  8.059419  2.680084  6.265729
Ni  8.079495  4.528162  4.494535
Al  2.635866 10.094063 11.697296
Ni  9.916559  4.488972  6.260988
Ni 11.727157  2.677369  6.288598
Al 13.659483  4.493724 13.530256
Ni  9.833121  2.639575  4.476840
Al  9.967200  8.167928 13.445275
Ni 13.558108  2.690727  4.471775
Ni  2.585274  8.167040  6.299073
Al  8.053788  4.542762 11.894393
Ni  4.447771  8.131158  4.602904
Ni  2.655022  6.345816  4.538456
Ni  6.346907  8.190190  6.249518
Ni  8.104132  6.350316  6.266835
Al  2.630200  6.177426 11.735968
Al  2.664633  8.131234 13.665687
Ni  9.889847  8.201342  6.323220
Ni  9.883083  6.344850  4.485523
Ni 11.680803  8.169434  4.487508
Ni 11.684209  6.342631  2.703880
Ni 13.522039  8.105991  6.314698
Al 11.801091  0.964651  8.240098
Ni  2.605081 11.821983  6.272754
Ni  4.426656  9.981290  6.307184
Ni  4.419606 11.775493  4.525215
Ni  2.595765  9.962629  4.527346
Ni  6.257108 11.799209  6.288682
Ni  8.118386 10.043093  6.336354
Al  4.435783 13.552966  9.819929
Ni  6.264065 10.004352  4.521910
Ni  9.898197 13.564634  4.507146
Al  2.564488  1.021618  9.896398
Al 11.658331  9.945867  9.840358
Ni  9.939568 10.052679  4.569503
Ni 13.500007 11.806424  6.346023
Al  8.155342 10.036142  9.819989
Ni 11.696750 11.799338  4.537150
Al  2.551111 10.072799  8.004495
Ni  4.412735 13.613251  6.310176
Ni  4.428295  0.940339  4.517102
Ni  2.589131 13.587261  4.499108
Ni  6.249326  0.940407  6.250365
Ni  8.073277 13.599848  6.313374
Al 13.663426  8.106191  9.940436
Ni  6.225585 13.575319  4.486463
Al 11.564679  6.389225  9.905466
Ni 11.761648 13.638203  6.343087
Ni 11.699270  0.893982  4.458663
Al  8.144629  6.348793  9.852931
Ni 13.539566  0.919018  6.320875
Al  6.141841  8.129912  9.898189
Al  2.621133  8.086810  9.834251
Ni  2.644321  4.518531  9.894462
Ni  4.469351  2.748322  9.882175
Al 13.689175  4.481063  9.940345
Ni  2.620983  2.751041  8.088245
Ni  6.340411  4.561439  9.928136
Ni  6.264793  2.728235 11.720618
Ni  8.107218  4.496979  8.075842
Ni  6.241371  2.735575  8.091602
Al 13.515657  8.194303 13.448058
Al 11.631350  6.450779  6.316697
Al 11.584696  4.372422  8.111917
Ni  9.864402  2.642789  8.099251
Al  8.030432  2.677056  9.864341
Al  4.469131  4.648717  8.147206
Ni 13.586615  2.727034  8.132147
Al 13.538494 13.577908  4.483325
Ni  4.441973  6.345878  9.882109
Ni  2.604120  6.334243  8.066293
Ni  8.056741  8.177627  8.110827
Al 11.637077 13.488076  2.654216
Ni  9.929188 10.010054  8.078004
Ni  6.309991  6.337467  8.055051
Ni  7.986057  8.219960 11.672231
Al  9.921237  0.890471  6.313441
Al  8.080333  0.801943  4.420599
Ni  9.878167  6.324201  8.072404
Ni 13.486966  6.243876  8.124272
Ni 11.734621  8.138735  8.157630
Ni  2.627488 11.794135  9.865982
Ni  4.368705  9.919000  9.809326
Ni  4.431144 11.780365  8.047585
Al  2.530968  0.847400  6.308251
Ni  6.236605 11.758202  9.867182
Ni  8.075251 11.818961  8.082709
Ni  6.232041  9.946201  8.100586
Ni  9.906169 11.814136  9.915176
Ni  9.850805  8.183278  9.918888
Ni 11.737927 11.819047  8.157790
Al  9.950710 11.904540  6.418847
Ni 13.516046 11.776751  9.958246
Ni 13.545959  9.955874  8.170076
Al 11.801539  9.918139  6.350047
Al  8.089115 11.810864  4.513839
Ni  4.399836  0.929508  8.093320
Ni  2.579787 13.584737  8.118706
Ni  6.227943  0.903072  9.894490
Ni  8.037655 13.582600  9.889021
Ni  8.055539  0.916758  8.086345
Ni  6.235072 13.591631  8.087028
Ni  9.875875  0.930841  9.943123
Ni 11.707550 13.617107  9.999730
Al 13.627707  6.428955  4.382888
Ni  9.927744 13.659600  8.154313
Ni 13.569673  0.957393  9.986649
Ni 13.551612 13.614185  8.183709
Ni  2.666048  4.510654 13.559578
Ni  4.452024  2.714818 13.520918
Ni  4.486459  4.519265 11.705171
Ni  2.632158  2.766035 11.715334
Ni  6.230926  4.569268 13.571897
Ni  8.009048  2.712269 13.566393
Ni  9.817080  4.508739  9.951620
Ni  6.210170  0.889259 13.542077
Ni  9.869955  4.559378 13.588592
Ni 11.737280  2.725307 13.554629
Ni 11.714625  2.778018  9.959776
Ni  9.807867  2.717781 11.749023
Ni 13.515320  6.272191 11.701700
Ni 13.588224  2.748876 11.759928
Al  6.124741  6.283016  4.648052
Ni  4.416255  6.323811 13.558372
Ni  4.323167  8.143983 11.716939
Al  8.154054  8.291875  4.534447
Ni  8.020711  9.901919 13.509806
Al  4.481214  7.962834  7.782166
Al 13.653960  4.428694  6.315086
Ni  6.255056  6.359453 11.714414
Ni  9.901216  9.952210  0.830357
Ni 11.777705  6.298107 13.585150
Ni 11.738075  8.145912 11.670436
Ni  9.849870  6.352898 11.758590
Al 11.616693  4.405642  4.401307
Ni  2.624268 11.796166 13.529211
Ni  4.378470  9.965441 13.532516
Ni  4.422121 11.865485 11.697291
Al  6.265336  2.830470  4.456895
Al  4.418610  2.708857  6.335818
Al 11.638313  0.971477  0.832826
Ni  8.042969 11.728746 11.727100
Ni  8.048610  6.458003 13.575807
Ni  9.896119 11.758889 13.484345
Ni 11.739988  9.984518 13.490808
Ni  9.893854  9.990581 11.693714
Al 11.701099 10.001503  2.693537
Ni 13.538171  9.988509 11.687079
Ni  2.618245  0.968698 13.502757
Al  8.106116 11.737158  0.799140
Ni  4.443032  0.903189 11.667102
Ni  2.603363 13.610616 11.660220
Al  6.153031 11.778758  2.738387
Al  4.312759 11.692246  0.882850
Ni  8.038668  0.945405 11.735063
Al 11.600080  4.466319  0.933106
Al 11.578158  4.457131 11.796245
Ni  9.882801  0.915293 13.499240
Al 13.600214  6.400532  1.029380
Al  8.112070  6.248774  2.695581
Ni 13.573398 13.595104 11.756848
%ENDBLOCK POSITIONS_ABS

FIX_ALL_CELL: TRUE
KPOINT_MP_GRID: 1 1 1
