#######################################################
#CASTEP cell file: /home/u2093113/Documents/kART/barriers/CASTEP/castep.cell
#Created using the Atomic Simulation Environment (ASE)#
#######################################################

%BLOCK LATTICE_CART
14.464828  0.000000  0.000000
 0.000000 14.464828  0.000000
 0.000000  0.000000 14.464828
%ENDBLOCK LATTICE_CART

%BLOCK POSITIONS_ABS
Ni  8.217319  6.242682 13.559453
Ni 10.041394  4.452699 13.570227
Ni 10.033619  6.269847 11.769708
Al  8.255142  4.446626 11.774401
Ni 11.824216  6.272271 13.577095
Ni 13.629978  4.474692 13.568544
Ni 13.626298  6.278891 11.757662
Al 11.835852  4.472615 11.756348
Ni  8.166026  9.950060 13.612679
Ni 10.024696  8.084850 13.569747
Ni 10.032018  9.880723 11.773928
Al  8.243406  8.089664 11.794223
Ni 11.840589  9.879938 13.569764
Ni 13.624979  8.076334 13.571381
Ni 13.633392  9.875999 11.755964
Al 11.826396  8.074828 11.762698
Ni  8.234483 13.490112 13.532998
Ni 10.065863 11.701069 13.553544
Ni 10.074427 13.513174 11.741242
Al  8.321907 11.711230 11.714705
Ni 11.863945 13.504044 13.555439
Ni 13.636411 11.685912 13.563483
Ni 13.644580 13.497520 11.749540
Al 11.848142 11.684654 11.750104
Ni  8.230762  2.639617 13.557532
Ni 10.071783  0.843703 13.545807
Ni 10.050887  2.656184 11.752166
Al  8.277567  0.845361 11.759931
Ni 11.849764  2.661353 13.562263
Ni 13.643261  0.851429 13.561128
Ni 13.640894  2.669472 11.752808
Al 11.860694  0.855491 11.745065
Ni  8.129533  6.249330  2.759943
Ni 10.006482  4.447213  2.713087
Ni 10.009930  6.246273  0.927479
Al  8.239455  4.425549  0.899933
Ni 11.813799  6.272639  2.723183
Ni 13.628951  4.474732  2.724758
Ni 13.622399  6.277220  0.916591
Al 11.829512  4.464655  0.918161
Ni  8.155581  9.960670  2.648377
Ni  9.990679  8.084021  2.714577
Ni 10.034144  9.893009  0.908527
Al  8.293531  8.026137  0.888491
Ni 11.827276  9.878747  2.721941
Ni 13.622983  8.077691  2.722878
Ni 13.629316  9.878785  0.914763
Al 11.813362  8.072775  0.918720
Ni  8.218129 13.524395  2.747537
Ni 10.051284 11.708355  2.728825
Ni 10.088536 13.523205  0.906776
Al  8.351118 11.779876  0.906691
Ni 11.862136 13.502553  2.728129
Ni 13.635166 11.684798  2.725366
Ni 13.640178 13.499489  0.911074
Al 11.849451 11.692266  0.912655
Ni  8.230054  2.571625  2.716608
Ni 10.059328  0.833954  2.726582
Ni 10.052629  2.643428  0.907007
Al  8.308077  0.826203  0.852148
Ni 11.842730  2.660144  2.722246
Ni 13.643944  0.850706  2.726219
Ni 13.636705  2.664709  0.912620
Al 11.860684  0.852957  0.909869
Ni  8.152941  6.274794  6.260742
Ni 10.018490  4.478253  6.331763
Ni  9.994412  6.273155  4.511220
Al  8.248983  4.431149  4.508186
Ni 11.811518  6.282883  6.327908
Ni 13.631102  4.482984  6.334106
Ni 13.624842  6.281129  4.528134
Al 11.818889  4.477462  4.525947
Ni  8.207710  9.901455  6.351848
Ni  9.988300  8.076069  6.326329
Ni 10.006413  9.878767  4.513503
Al  8.206512  8.096076  4.499218
Ni 11.823005  9.865682  6.331763
Ni 13.626402  8.076583  6.331737
Ni 13.629501  9.875261  4.530029
Al 11.804633  8.075645  4.522155
Ni  8.252371 13.491726  6.368059
Ni 10.056744 11.682139  6.357059
Ni 10.081747 13.497887  4.547375
Al  8.312256 11.707823  4.567646
Ni 11.862477 13.492469  6.348928
Ni 13.638118 11.677963  6.337450
Ni 13.641959 13.496210  4.535926
Al 11.840523 11.678102  4.535641
Ni  8.263804  2.636613  6.352741
Ni 10.090053  0.843396  6.365891
Ni 10.060112  2.657693  4.532341
Al  8.348290  0.830692  4.611610
Ni 11.845249  2.676221  6.343054
Ni 13.642871  0.852390  6.339830
Ni 13.634190  2.668674  4.532373
Al 11.855715  0.851410  4.537830
Ni  8.216192  6.274743  9.990732
Ni 10.027971  4.469299  9.957483
Ni  9.987144  6.283586  8.131554
Al  8.268707  4.464385  8.151378
Ni 11.819606  6.278748  9.944824
Ni 13.633956  4.481248  9.943944
Ni 13.627825  6.281849  8.137364
Al 11.819490  4.487277  8.140191
Ni  8.218792  9.898181  9.964221
Ni 10.016386  8.077655  9.963749
Ni 10.026846  9.872693  8.147974
Al  8.229562  8.085043  8.164128
Ni 11.833278  9.869163  9.951248
Ni 13.629113  8.075267  9.946924
Ni 13.631758  9.870383  8.139965
Al 11.811478  8.069821  8.137767
Ni  8.239214 13.513998  9.938411
Ni 10.063134 11.689206  9.939099
Ni 10.067574 13.496226  8.153001
Al  8.255144 11.694758  8.158334
Ni 11.861104 13.501729  9.943726
Ni 13.638939 11.680684  9.946398
Ni 13.649656 13.495698  8.142949
Al 11.849968 11.675425  8.144803
Ni  8.226811  2.638620  9.952351
Ni 10.057896  0.851824  9.944567
Ni 10.051604  2.664877  8.153660
Al  8.281973  0.838156  8.138498
Ni 11.848678  2.671129  9.946862
Ni 13.650369  0.853211  9.944110
Ni 13.641437  2.675028  8.140737
Al 11.861666  0.854712  8.151102
Ni  1.031585  6.231479 13.508971
Ni  2.773209  4.425330 13.519103
Al  4.754184  2.639404  9.893127
Ni  0.933801  4.421598 11.696671
Ni  4.517360  6.250613 13.523841
Ni  6.406738  4.422991 13.568405
Ni  4.587013  8.069933 11.742220
Ni  4.630643  4.401559 11.737453
Al  0.814459  0.836444  8.065292
Ni  0.949139  8.109626 11.665368
Ni  0.946658  9.941993 13.548551
Al  2.791512  2.752618  8.022537
Ni  4.555809  9.904748 13.502348
Ni  6.398858  8.074551 13.549309
Ni  6.431310  9.933974 11.799519
Ni  2.749317  9.931436 11.728037
Ni  0.954478 13.516720 13.535346
Ni  4.577900 11.760704 11.750090
Ni  2.746728 13.547628 11.683622
Al  4.650163 13.531230  9.969220
Ni  4.537423 13.582138 13.524430
Ni  4.603803 11.733953  0.862937
Ni  6.434691 13.539351 11.745732
Al  2.787290 13.445752  8.021963
Ni  0.948126  2.620054 13.512199
Ni  4.565420  0.895030 11.709707
Ni  0.965142  0.847276 11.656716
Ni  4.551909  2.602018 13.535215
Ni  6.412059  0.825576 13.560211
Ni  6.438291  2.630661 11.766144
Ni  2.791441  0.884941  9.809680
Ni  0.946327  6.229054  2.715343
Ni  2.815903  4.441792  2.732798
Al  4.608247  9.980167 10.035768
Ni  0.925538  4.401133  0.895206
Al  1.081493  9.945523  9.823498
Ni  6.475357  4.383979  2.693708
Ni  6.421116  6.255953  0.858366
Ni  4.628683  4.434419  0.892527
Ni  1.039599  9.888612  2.748800
Ni  2.806703  7.989616  2.659603
Ni  2.783797  9.879276  0.883963
Ni  0.968212  8.068860  0.887135
Ni  4.577179  9.837900  2.719444
Ni  6.448376  8.102165  2.659756
Al  2.873874  2.729112  4.661252
Ni  4.549086  7.995679  0.855852
Ni  0.968910  0.878127  0.917623
Al  0.974012 11.650604  4.563160
Ni  1.017536 11.770117  0.961183
Ni  4.557019 13.566588  2.745243
Ni  6.423296 13.544909  0.922586
Ni  2.766683 13.562624  0.913296
Al  4.717134  9.907942  6.342804
Al  2.811800  9.654481  4.530420
Ni  2.816769  0.925486  2.763710
Ni  2.764642  2.663430  0.884067
Ni  4.599887  2.646363  2.738214
Ni  6.419047  2.583393  0.908661
Al  4.877821  6.201430  6.224848
Al  4.752201  8.028254  8.238153
Al  2.780621  6.260841  4.432293
Al  0.923287  6.297673  6.336500
Ni  0.944565  4.476328  4.548182
Ni  6.517791  4.416363  6.314528
Ni  4.710541  4.491004  4.502015
Al  4.593012  0.873508  0.894965
Al  6.370444  0.825456  2.814964
Al  2.688602  0.794016 13.526294
Ni  0.970783  9.813597  6.342119
Al  0.991353  2.678682  2.768227
Ni  0.936220  8.040844  4.541611
Ni  2.897294  7.923539  6.386862
Ni  6.463170  8.104396  6.336711
Ni  6.437722  9.917196  4.487077
Ni  4.712087  7.998352  4.520246
Al  6.270118 11.784089  2.738689
Ni  0.942305 13.477665  6.308030
Ni  2.798225 11.607881  6.280599
Ni  2.772684 13.495950  4.555921
Al  1.026442 13.670812  2.776241
Ni  4.604761 13.477666  6.338482
Ni  6.449251 11.709494  6.314321
Ni  6.427396 13.502892  4.554403
Ni  4.571964 11.658648  4.532554
Al  2.914389 11.694828  2.628537
Ni  0.948373  2.694844  6.313223
Ni  2.768641  0.857466  6.376699
Al  6.251011  9.804090  0.865742
Ni  0.991517  0.902470  4.568772
Ni  4.642441  2.690493  6.361936
Ni  6.455816  0.832058  6.323831
Ni  6.447757  2.618191  4.543564
Ni  4.601151  0.862520  4.593361
Ni  0.961338  6.240502  9.902003
Ni  2.819502  4.381064  9.905746
Ni  2.828982  4.602588  6.318245
Ni  0.924688  4.469729  8.074427
Ni  4.639594  6.240578  9.966415
Ni  6.478475  4.451230  9.967024
Ni  6.481329  6.256560  8.161059
Ni  4.690143  4.483396  8.131123
Al  4.839072  6.231922  2.730789
Ni  0.972359 11.730051 11.689577
Ni  2.812847  8.077590  9.942392
Ni  2.892207  9.837265  8.101931
Ni  0.961485  8.061053  8.128657
Al  2.726782  6.150029  0.911897
Ni  6.403140  6.246365 11.795373
Ni  6.418200  9.904443  8.185637
Ni  6.442528  8.099677 10.028269
Al  2.706514  2.695395 11.676458
Ni  0.986357 13.488568  9.837451
Ni  2.818176 11.738557  9.897543
Al  6.282951 11.816918 13.525300
Ni  0.965365 11.674495  8.065557
Al  2.773331 11.739064 13.559770
Ni  6.437309 11.725481  9.985370
Ni  6.434525 13.507829  8.138007
Ni  4.647073 11.708500  8.142189
Al  2.771317  6.164125 11.648272
Al  2.799416  6.180756  8.258831
Ni  0.961182  2.649291  9.839035
Al  2.732617  8.174993 13.511100
Ni  4.633772  0.836915  8.113718
Ni  6.456415  0.832423  9.943886
Ni  6.466987  2.638957  8.121855
%ENDBLOCK POSITIONS_ABS

FIX_ALL_CELL: TRUE
KPOINT_MP_GRID: 1 1 1
