#######################################################
#CASTEP cell file: /home/u2093113/Documents/kART/barriers/CASTEP/castep.cell
#Created using the Atomic Simulation Environment (ASE)#
#######################################################

%BLOCK LATTICE_CART
14.464828  0.000000  0.000000
 0.000000 14.464828  0.000000
 0.000000  0.000000 14.464828
%ENDBLOCK LATTICE_CART

%BLOCK POSITIONS_ABS
Ni  8.212853  2.708538  9.936190
Ni 10.029139  0.898141  9.940989
Ni 10.035761  2.712604  8.143398
Al  8.243707  0.900697  8.149478
Ni 11.823137  2.716420  9.945279
Ni 13.624812  0.912474  9.939822
Ni 13.625192  2.716578  8.130377
Al 11.830575  0.906969  8.133469
Ni  8.225415  6.411554  9.918534
Ni 10.022434  4.537106  9.942190
Ni 10.060072  6.333250  8.125977
Al  8.264132  4.537821  8.154305
Ni 11.842547  6.326906  9.939032
Ni 13.625660  4.520026  9.939053
Ni 13.630225  6.323086  8.124710
Al 11.829238  4.517664  8.132083
Ni  8.214722  9.900987  9.910716
Ni 10.076564  8.151980  9.923043
Ni 10.068907  9.960183  8.113231
Al  8.331107  8.162924  8.071366
Ni 11.858796  9.953909  9.930601
Ni 13.633227  8.133871  9.934536
Ni 13.641757  9.947052  8.121329
Al 11.853745  8.139588  8.117908
Ni  8.209715 13.548762  9.924183
Ni 10.048468 11.744100  9.921197
Ni 10.033422 13.557300  8.128930
Al  8.255892 11.735635  8.137552
Ni 11.836120 13.563554  9.935847
Ni 13.639634 11.760161  9.934659
Ni 13.636496 13.572409  8.127294
Al 11.851027 11.764271  8.121110
Ni  6.485626  2.706364  0.884260
Ni  9.996778  0.893755 13.533259
Ni 10.006964  2.715921 11.739857
Al  8.220029  0.879828 11.718566
Ni 11.807057  2.714968 13.547807
Ni 13.621472  0.913945 13.553438
Ni 13.620993  2.716814 11.748467
Al 11.819247  0.906589 11.746987
Ni  8.199006  6.393693 13.554598
Ni  9.993288  4.532809 13.538118
Ni 10.041034  6.336572 11.744989
Al  8.223562  4.554423 11.709283
Ni 11.830801  6.324501 13.555514
Ni 13.623154  4.518686 13.554898
Ni 13.629537  6.325758 11.748628
Al 11.820566  4.520904 11.748993
Ni  8.197343  9.945538 13.572876
Ni 10.052695  8.154226 13.566693
Ni 10.067403  9.957997 11.742828
Al  8.342031  8.171508 11.744393
Ni 11.853778  9.952755 13.558802
Ni 13.634000  8.132998 13.558560
Ni 13.638627  9.946297 11.746405
Al 11.846892  8.139925 11.749522
Ni  8.204884 13.496025 13.548502
Ni 10.032188 11.741291 13.553900
Ni 10.029481 13.549523 11.737919
Al  8.278661 11.724993 11.683677
Ni 11.828749 13.565131 13.549039
Ni 13.639778 11.760858 13.556495
Ni 13.630068 13.569947 11.745925
Al 11.845078 11.759454 11.744672
Ni  8.209017  2.724944  2.710220
Ni 10.020036  0.913612  2.704016
Ni  9.993478  2.715640  0.878763
Al  8.257295  0.883685  0.882131
Ni 11.817454  2.713636  2.694881
Ni 13.628432  0.918381  2.699549
Ni 13.621591  2.716790  0.892361
Al 11.811155  0.915974  0.886484
Ni  8.221937  6.331704  2.714355
Ni 10.020517  4.517023  2.699612
Ni 10.036904  6.325619  0.896887
Al  8.234354  4.540407  0.884067
Ni 11.838040  6.315395  2.701805
Ni 13.625152  4.514914  2.699736
Ni 13.628971  6.320101  0.897385
Al 11.812640  4.512496  0.886942
Ni  8.242542  9.937161  2.731417
Ni 10.064770  8.134133  2.721116
Ni 10.069449  9.947211  0.910935
Al  8.308994  8.149708  0.944303
Ni 11.859210  9.948882  2.711159
Ni 13.639142  8.129860  2.703813
Ni 13.641436  9.947221  0.900808
Al 11.845789  8.133131  0.902711
Ni  8.240004 13.556955  2.718389
Ni 10.072290 11.759006  2.727684
Ni 10.045425 13.564628  0.894656
Al  8.324908 11.739097  0.972488
Ni 11.838662 13.580231  2.707353
Ni 13.641546 11.764155  2.703896
Ni 13.628185 13.575191  0.895436
Al 11.844399 11.762874  0.899297
Ni  8.237424  2.702927  6.351047
Ni 10.028815  0.899641  6.335318
Ni 10.025164  2.713131  4.517248
Al  8.259226  0.907611  4.530682
Ni 11.826484  2.712010  6.324106
Ni 13.632240  0.915342  6.318882
Ni 13.625465  2.715944  4.508516
Al 11.825295  0.914136  4.513588
Ni  8.265572  6.360061  6.316068
Ni 10.028844  4.519208  6.330021
Ni 10.047441  6.322801  4.508365
Al  8.261298  4.526241  4.529529
Ni 11.842229  6.318678  6.314064
Ni 13.628867  4.516265  6.318270
Ni 13.634082  6.317552  4.508289
Al 11.825048  4.511005  4.510508
Ni  8.233739  9.954640  6.302406
Ni 10.078433  8.148213  6.299352
Ni 10.066482  9.953182  4.515580
Al  8.274798  8.148149  4.512048
Ni 11.859831  9.958194  6.312107
Ni 13.637135  8.132074  6.313875
Ni 13.647693  9.948273  4.509417
Al 11.855866  8.132582  4.508310
Ni  8.211131 13.544364  6.331369
Ni 10.043545 11.761468  6.317517
Ni 10.037488 13.569856  4.523807
Al  8.265786 11.745932  4.506180
Ni 11.841750 13.571366  6.321881
Ni 13.648256 11.763408  6.315565
Ni 13.640061 13.578055  4.510046
Al 11.854386 11.769269  4.517063
Ni  0.978586  2.656912  9.867753
Ni  2.762643  0.873803  9.877040
Al  4.749647 13.537496  6.277411
Ni  0.907878  0.842685  8.059935
Ni  4.486489  2.807781  9.866562
Ni  6.388478  0.889332  9.927113
Ni  4.551083  6.323860  9.865194
Ni  4.617021  0.877836  8.114809
Al  0.816572 11.723750  4.437292
Ni  0.887622  4.561255  8.020120
Ni  0.901107  6.403679  9.906613
Al  2.787394 13.642734  4.405536
Ni  4.575892  8.137054 11.692220
Ni  6.426599  4.571713  9.889616
Ni  6.468366  6.398897  8.111020
Ni  2.744147  6.362698  8.059453
Ni  0.954731  9.942478  9.897488
Ni  4.595687  8.089425  8.049323
Ni  2.759714  9.949465  8.045707
Al  4.651657  9.952407  6.342023
Ni  4.545454  9.964905  9.874355
Ni  6.440903  6.407820 11.716213
Ni  6.423435  9.930346  8.120623
Al  2.791376  9.859251  4.397165
Ni  0.947054 13.510089  9.876206
Ni  4.566991 11.779081  8.085169
Ni  0.967658 11.732339  8.024137
Ni  4.542485 13.512849  9.894278
Ni  6.397727 11.716908  9.926636
Ni  6.423373 13.543925  8.138843
Ni  2.792621 11.768639  6.186098
Ni  0.936481  2.671069 13.552629
Ni  2.798641  0.884654 13.569368
Al  4.704395  4.657463  7.992767
Ni  0.908230  0.825979 11.726238
Al  1.021613  6.401161  6.192645
Ni  6.464872  0.848587 13.523972
Ni  6.393090  2.720246 11.680119
Ni  4.609576  0.901816 11.697344
Ni  1.019733  6.324058 13.584521
Ni  2.832228  4.426451 13.452196
Ni  2.747080  6.310195 11.708305
Ni  0.931024  4.509170 11.723696
Ni  4.581363  6.282554 13.549162
Ni  8.185742  2.711952 13.512708
Al  2.871691 13.628588  1.037709
Ni  6.442924  4.553089 13.507829
Ni  0.975388 11.775315 11.745448
Al  0.962020  8.091562  0.931152
Ni  1.007408  8.210740 11.792172
Ni  4.560508  9.980932 13.569263
Ni  6.408511  9.950794 11.749190
Ni  2.767926  9.989475 11.737151
Al  4.697739  6.338178  2.719441
Al  2.789533  6.091640  0.898718
Ni  2.828433 11.825439 13.589429
Ni  2.764751 13.567592 11.708889
Ni  4.594612 13.575918 13.568513
Ni  6.398640 13.504640 11.733561
Al  4.777432  2.689224  2.709704
Al  4.718797  4.636308  4.765420
Al  2.757665  2.718609  0.821879
Al  0.914635  2.746161  2.725946
Ni  0.941104  0.914951  0.927658
Ni  6.492886  0.889929  2.711692
Ni  4.663415  0.937584  0.907599
Al  4.592246 11.765533 11.716599
Al  6.351995 11.729692 13.642949
Al  2.698921 11.675189  9.882745
Ni  0.944414  6.256973  2.710032
Al  0.993924 13.575234 13.601900
Ni  0.926832  4.481325  0.907915
Ni  2.874143  4.394089  2.788785
Ni  6.438712  4.542131  2.743858
Ni  6.432016  6.345926  0.884174
Ni  4.663042  4.458848  0.892758
Al  6.269694  8.163310 13.541329
Ni  0.941351  9.914486  2.674651
Ni  2.790158  8.039746  2.645346
Ni  2.776200  9.928034  0.921223
Al  1.027819 10.111754 13.607530
Ni  4.601130  9.894784  2.714078
Ni  6.444986  8.143370  2.685882
Ni  6.415314  9.924504  0.911729
Ni  4.571796  8.081920  0.893991
Al  2.900336  8.125639 13.463941
Ni  0.949149 13.590487  2.690817
Ni  2.773103 11.749249  2.750826
Al  4.701544  4.613161 11.670977
Ni  0.997271 11.802767  0.937947
Ni  4.636492 13.597472  2.742802
Ni  6.443116 11.731860  2.688994
Ni  6.428254 13.544419  0.917388
Ni  4.598795 11.759842  0.958782
Ni  0.922554  2.675448  6.268758
Ni  2.806432  0.822094  6.277282
Ni  2.810296  1.042834  2.717483
Ni  0.915530  0.905494  4.452677
Ni  4.622741  2.719043  6.357712
Ni  6.465646  0.903971  6.343704
Ni  6.449293  2.727174  4.553329
Ni  4.675210  0.924411  4.530305
Al  4.765957  2.634417 13.550869
Ni  0.954899  8.164689  8.051029
Ni  2.765129  4.530101  6.351131
Ni  2.839586  6.297476  4.489585
Ni  0.930492  4.510621  4.513333
Al  2.671353  2.578297 11.717948
Ni  6.405906  2.711204  8.156961
Ni  6.461460  6.361109  4.548878
Ni  6.526172  4.545745  6.374368
Al  2.702388 13.594417  8.044549
Ni  0.982021  9.913918  6.206152
Ni  2.820667  8.143972  6.264304
Al  6.277545  8.173880  9.918668
Ni  0.942626  8.120020  4.428828
Al  2.771847  8.155940  9.906138
Ni  6.440932  8.150107  6.325956
Ni  6.423261  9.935758  4.504170
Ni  4.644492  8.088947  4.545048
Al  2.706842  2.586277  8.014703
Al  2.787202  2.654205  4.661112
Ni  0.956525 13.537398  6.208085
Al  2.612511  4.631374  9.848413
Ni  4.631450 11.731526  4.489107
Ni  6.448460 11.725257  6.323808
Ni  6.455525 13.543073  4.499642
%ENDBLOCK POSITIONS_ABS

FIX_ALL_CELL: TRUE
KPOINT_MP_GRID: 1 1 1
