#######################################################
#CASTEP cell file: /home/u2093113/Documents/kART/barriers/CASTEP/castep.cell
#Created using the Atomic Simulation Environment (ASE)#
#######################################################

%BLOCK LATTICE_CART
14.464828  0.000000  0.000000
 0.000000 14.464828  0.000000
 0.000000  0.000000 14.464828
%ENDBLOCK LATTICE_CART

%BLOCK POSITIONS_ABS
Ni  8.217286  6.242649  2.717489
Ni 10.041363  4.452705  2.728213
Ni 10.033586  6.269815  0.927658
Al  8.255100  4.446640  0.932362
Ni 11.824206  6.272242  2.735035
Ni 13.630004  4.474696  2.726435
Ni 13.626295  6.278874  0.915548
Al 11.835842  4.472619  0.914275
Ni  8.166049  9.949999  2.770670
Ni 10.024685  8.084796  2.727731
Ni 10.032035  9.880664  0.931896
Al  8.243402  8.089612  0.952197
Ni 11.840607  9.879891  2.727687
Ni 13.624988  8.076301  2.729270
Ni 13.633402  9.875965  0.913864
Al 11.826385  8.074777  0.920623
Ni  8.234492 13.490119  2.690935
Ni 10.065897 11.701043  2.711482
Ni 10.074451 13.513183  0.899228
Al  8.321936 11.711194  0.872711
Ni 11.863987 13.504052  2.713350
Ni 13.636448 11.685892  2.721367
Ni 13.644624 13.497520  0.907455
Al 11.848171 11.684632  0.908055
Ni  8.230721  2.639669  2.715523
Ni 10.071791  0.843737  2.703744
Ni 10.050872  2.656224  0.910130
Al  8.277548  0.845409  0.917927
Ni 11.849780  2.661378  2.720189
Ni 13.643314  0.851442  2.719013
Ni 13.640923  2.669487  0.910710
Al 11.860722  0.855517  0.903017
Ni  8.129482  6.249301  6.382886
Ni 10.006497  4.447167  6.335892
Ni 10.009909  6.246237  4.550319
Al  8.239408  4.425535  4.522828
Ni 11.813820  6.272611  6.345950
Ni 13.628981  4.474716  6.347485
Ni 13.622417  6.277205  4.539318
Al 11.829530  4.464644  4.540922
Ni  8.155646  9.960731  6.271160
Ni  9.990714  8.084015  6.337375
Ni 10.034178  9.892985  4.531297
Al  8.293534  8.026098  4.511372
Ni 11.827320  9.878753  6.344665
Ni 13.622995  8.077682  6.345606
Ni 13.629347  9.878761  4.537468
Al 11.813376  8.072740  4.541481
Ni  8.218173 13.524397  6.370269
Ni 10.051355 11.708386  6.351547
Ni 10.088574 13.523218  4.529495
Al  8.351165 11.779875  4.529431
Ni 11.862200 13.502566  6.350824
Ni 13.635213 11.684797  6.348054
Ni 13.640242 13.499488  4.533762
Al 11.849500 11.692261  4.535365
Ni  8.230049  2.571532  6.339408
Ni 10.059367  0.833932  6.349309
Ni 10.052625  2.643432  4.529784
Al  8.308065  0.826208  4.474897
Ni 11.842774  2.660114  6.344974
Ni 13.644012  0.850699  6.348908
Ni 13.636757  2.664715  4.535327
Al 11.860730  0.852969  4.532582
Ni  8.152897  6.274776  9.883390
Ni 10.018505  4.478191  9.954514
Ni  9.994438  6.273124  8.133998
Al  8.249030  4.430994  8.130990
Ni 11.811527  6.282855  9.950647
Ni 13.631116  4.482955  9.956834
Ni 13.624853  6.281114  8.150868
Al 11.818916  4.477410  8.148697
Ni  8.207809  9.901560  9.974643
Ni  9.988323  8.076079  9.949081
Ni 10.006500  9.878837  8.136262
Al  8.206600  8.096193  8.122008
Ni 11.823036  9.865708  9.954519
Ni 13.626401  8.076586  9.954467
Ni 13.629519  9.875274  8.152750
Al 11.804655  8.075650  8.144908
Ni  8.252431 13.491719  9.990893
Ni 10.056831 11.682194  9.979851
Ni 10.081818 13.497904  8.170121
Al  8.312339 11.707898  8.190420
Ni 11.862535 13.492481  9.971692
Ni 13.638144 11.677973  9.960189
Ni 13.642014 13.496206  8.158632
Al 11.840586 11.678137  8.158365
Ni  8.263805  2.636509  9.975538
Ni 10.090095  0.843357  9.988681
Ni 10.060159  2.657598  8.155108
Al  8.348314  0.830616  8.234390
Ni 11.845284  2.676171  9.965808
Ni 13.642919  0.852371  9.962568
Ni 13.634232  2.668645  8.155092
Al 11.855783  0.851383  8.160556
Ni  8.216180  6.274723 13.613466
Ni 10.027946  4.469286 13.580229
Ni  9.987113  6.283553 11.754265
Al  8.268692  4.464349 11.774093
Ni 11.819586  6.278717 13.567551
Ni 13.633964  4.481239 13.566664
Ni 13.627822  6.281832 11.760083
Al 11.819491  4.487245 11.762930
Ni  8.218834  9.898166 13.587036
Ni 10.016384  8.077619 13.586503
Ni 10.026896  9.872716 11.770764
Al  8.229602  8.085061 11.786864
Ni 11.833290  9.869138 13.574021
Ni 13.629105  8.075245 13.569642
Ni 13.631761  9.870385 11.762706
Al 11.811470  8.069804 11.760503
Ni  8.239241 13.514012 13.561296
Ni 10.063177 11.689204 13.561940
Ni 10.067628 13.496242 11.775841
Al  8.255223 11.694794 11.781198
Ni 11.861139 13.501737 13.566538
Ni 13.638958 11.680676 13.569157
Ni 13.649688 13.495696 11.765711
Al 11.850005 11.675443 11.767599
Ni  8.226792  2.638630 13.575144
Ni 10.057916  0.851837 13.567404
Ni 10.051618  2.664837 11.776440
Al  8.281991  0.838129 11.761348
Ni 11.848689  2.671132 13.569633
Ni 13.650402  0.853212 13.566869
Ni 13.641459  2.675007 11.763478
Al 11.861702  0.854701 11.773893
Ni  1.031638  6.231492  2.666987
Ni  2.773229  4.425373  2.677147
Al  4.754159  2.639454 13.515889
Ni  0.933838  4.421675  0.854615
Ni  4.517370  6.250609  2.681913
Ni  6.406686  4.423019  2.726448
Ni  4.587048  8.069909  0.900225
Ni  4.630634  4.401615  0.895420
Al  0.814425  0.836413 11.688129
Ni  0.949157  8.109608  0.823333
Ni  0.946617  9.941941  2.706511
Al  2.791507  2.752593 11.645328
Ni  4.555823  9.904698  2.660375
Ni  6.398869  8.074497  2.707369
Ni  6.431330  9.933913  0.957525
Ni  2.749324  9.931380  0.886051
Ni  0.954409 13.516732  2.693270
Ni  4.577890 11.760655  0.908100
Ni  2.746680 13.547635  0.841603
Al  4.650144 13.531212 13.592119
Ni  4.537387 13.582123  2.682373
Ni  4.603782 11.733957  4.485709
Ni  6.434673 13.539362  0.903742
Al  2.787252 13.445696 11.644868
Ni  0.948126  2.620124  2.670167
Ni  4.565372  0.895090  0.867702
Ni  0.965115  0.847344  0.814666
Ni  4.551873  2.602070  2.693232
Ni  6.412024  0.825613  2.718178
Ni  6.438244  2.630721  0.924121
Ni  2.791406  0.884958 13.432509
Ni  0.946344  6.229116  6.338198
Ni  2.815875  4.441749  6.355712
Al  4.608275  9.980131 13.658586
Ni  0.925570  4.401154  4.518072
Al  1.081461  9.945508 13.446333
Ni  6.475324  4.383885  6.316632
Ni  6.421094  6.255926  4.481323
Ni  4.628665  4.434415  4.515497
Ni  1.039530  9.888672  6.371591
Ni  2.806695  7.989740  6.282467
Ni  2.783771  9.879291  4.506770
Ni  0.968209  8.068867  4.509964
Ni  4.577191  9.838014  6.342253
Ni  6.448413  8.102249  6.282644
Al  2.873793  2.729020  8.284115
Ni  4.549116  7.995680  4.478784
Ni  0.968854  0.878124  4.540386
Al  0.973918 11.650639  8.185963
Ni  1.017451 11.770110  4.583921
Ni  4.556991 13.566567  6.368000
Ni  6.423300 13.544885  4.545314
Ni  2.766620 13.562604  4.536052
Al  4.717156  9.908099  9.965640
Al  2.811749  9.654612  8.153254
Ni  2.816695  0.925407  6.386534
Ni  2.764617  2.663405  4.506913
Ni  4.599812  2.646222  6.361079
Ni  6.418995  2.583371  4.531509
Al  4.877925  6.201502  9.847450
Al  4.752264  8.028291 11.860852
Al  2.780628  6.260913  8.055130
Al  0.923332  6.297754  9.959281
Ni  0.944537  4.476350  8.171008
Ni  6.517781  4.416282  9.937258
Ni  4.710507  4.490830  8.124847
Al  4.592970  0.873461  4.517745
Al  6.370430  0.825357  6.437734
Al  2.688553  0.794041  2.684247
Ni  0.970727  9.813654  9.964945
Al  0.991347  2.678612  6.391073
Ni  0.936196  8.040944  8.164425
Ni  2.897310  7.923667 10.009660
Ni  6.463244  8.104529  9.959466
Ni  6.437797  9.917355  8.109883
Ni  4.712066  7.998610  8.143089
Al  6.270165 11.784161  6.361446
Ni  0.942242 13.477628  9.930888
Ni  2.798181 11.607915  9.903447
Ni  2.772622 13.495880  8.178714
Al  1.026338 13.670787  6.398984
Ni  4.604744 13.477607  9.961351
Ni  6.449309 11.709556  9.937182
Ni  6.427416 13.502869  8.177203
Ni  4.571969 11.658709  8.155353
Al  2.914322 11.694859  6.251303
Ni  0.948323  2.694783  9.936051
Ni  2.768600  0.857366  9.999555
Al  6.251049  9.804099  4.488573
Ni  0.991479  0.902383  8.191602
Ni  4.642462  2.690329  9.984790
Ni  6.455815  0.831938  9.946686
Ni  6.447740  2.618010  8.166388
Ni  4.601080  0.862409  8.216195
Ni  0.961388  6.240555 13.524733
Ni  2.819529  4.381137 13.528481
Ni  2.829004  4.602515  9.941004
Ni  0.924731  4.469782 11.697155
Ni  4.639627  6.240622 13.589149
Ni  6.478452  4.451260 13.589760
Ni  6.481364  6.256579 11.783743
Ni  4.690158  4.483440 11.753804
Al  4.839157  6.231974  6.353826
Ni  0.972299 11.730021  0.847559
Ni  2.812891  8.077604 13.565154
Ni  2.892194  9.837309 11.724759
Ni  0.961481  8.061109 11.751455
Al  2.726839  6.150045  4.534855
Ni  6.403139  6.246363  0.953339
Ni  6.418271  9.904492 11.808451
Ni  6.442558  8.099672 13.651023
Al  2.706509  2.695479  0.834420
Ni  0.986297 13.488562 13.460291
Ni  2.818147 11.738518 13.520424
Al  6.282957 11.816871  2.683256
Ni  0.965299 11.674488 11.688419
Al  2.773282 11.739038  2.717723
Ni  6.437345 11.725464 13.608255
Ni  6.434560 13.507802 11.760914
Ni  4.647083 11.708515 11.765098
Al  2.771358  6.164164  0.806242
Al  2.799484  6.180778 11.881484
Ni  0.961194  2.649360 13.461792
Al  2.732646  8.174956  2.669149
Ni  4.633757  0.836820 11.736596
Ni  6.456389  0.832441 13.566741
Ni  6.466973  2.638915 11.744649
%ENDBLOCK POSITIONS_ABS

FIX_ALL_CELL: TRUE
KPOINT_MP_GRID: 1 1 1
