#######################################################
#CASTEP cell file: /home/u2093113/Documents/kART/barriers/CASTEP/castep.cell
#Created using the Atomic Simulation Environment (ASE)#
#######################################################

%BLOCK LATTICE_CART
14.464828  0.000000  0.000000
 0.000000 14.464828  0.000000
 0.000000  0.000000 14.464828
%ENDBLOCK LATTICE_CART

%BLOCK POSITIONS_ABS
Ni  8.213251  2.698854  9.933978
Ni 10.027059  0.892165  9.932476
Ni 10.024396  2.713138  8.135340
Al  8.240189  0.896954  8.137990
Ni 11.819377  2.714138  9.935300
Ni 13.623947  0.906897  9.932744
Ni 13.628769  2.712174  8.127236
Al 11.827888  0.903410  8.128710
Ni  8.207620  6.406898  9.905203
Ni 10.005926  4.534544  9.928922
Ni 10.046579  6.325379  8.116153
Al  8.231759  4.533591  8.129518
Ni 11.836477  6.323284  9.928970
Ni 13.628226  4.517125  9.932943
Ni 13.634459  6.320313  8.121405
Al 11.831260  4.514724  8.130923
Ni  8.204902  9.893230  9.905138
Ni 10.061378  8.143869  9.912097
Ni 10.054409  9.948441  8.105230
Al  8.303622  8.145035  8.054458
Ni 11.851872  9.944685  9.921365
Ni 13.634232  8.129381  9.927206
Ni 13.642441  9.940810  8.116781
Al 11.848239  8.133076  8.112486
Ni  8.208553 13.542504  9.919008
Ni 10.041457 11.734992  9.913380
Ni 10.029391 13.551979  8.121793
Al  8.249664 11.732786  8.128430
Ni 11.833251 13.555248  9.927468
Ni 13.638151 11.752485  9.927157
Ni 13.635772 13.565719  8.123025
Al 11.845374 11.754788  8.115355
Ni  6.494391  2.698360  0.879391
Ni 10.007302  0.884724 13.527535
Ni 10.010325  2.709803 11.731712
Al  8.226913  0.869260 11.719790
Ni 11.813618  2.709401 13.536603
Ni 13.622985  0.907181 13.544106
Ni 13.620953  2.712613 11.738608
Al 11.820062  0.899435 11.736447
Ni  8.199965  6.388084 13.558913
Ni 10.007225  4.529084 13.529351
Ni 10.034649  6.333825 11.735360
Al  8.230802  4.548705 11.717758
Ni 11.834173  6.323028 13.544184
Ni 13.622948  4.515648 13.544943
Ni 13.629887  6.323041 11.738754
Al 11.818451  4.518895 11.734828
Ni  8.195162  9.936002 13.577393
Ni 10.052578  8.148489 13.561743
Ni 10.060748  9.949020 11.736503
Al  8.333275  8.165007 11.745652
Ni 11.853731  9.945435 13.550787
Ni 13.635511  8.129208 13.549431
Ni 13.638160  9.940086 11.737436
Al 11.842686  8.134786 11.738369
Ni  8.210311 13.489801 13.550881
Ni 10.033189 11.731982 13.549976
Ni 10.030189 13.539941 11.731726
Al  8.276194 11.717735 11.684326
Ni 11.832210 13.555222 13.540705
Ni 13.640527 11.753175 13.548300
Ni 13.629653 13.562049 11.737092
Al 11.842395 11.749528 11.735495
Ni  8.235806  2.709215  2.700717
Ni 10.037623  0.905343  2.700456
Ni 10.013430  2.707078  0.871403
Al  8.271106  0.878893  0.879878
Ni 11.825615  2.709006  2.692393
Ni 13.630853  0.912052  2.696119
Ni 13.623386  2.712368  0.885452
Al 11.821037  0.907510  0.879898
Ni  8.240282  6.323785  2.708045
Ni 10.029846  4.511007  2.694943
Ni 10.049964  6.322831  0.890548
Al  8.261699  4.531381  0.865786
Ni 11.843011  6.311794  2.700049
Ni 13.628336  4.511499  2.695805
Ni 13.630169  6.316979  0.890866
Al 11.819497  4.509352  0.881046
Ni  8.243871  9.925787  2.725134
Ni 10.071536  8.128267  2.719042
Ni 10.072149  9.938641  0.908014
Al  8.310185  8.137321  0.945690
Ni 11.861768  9.942647  2.709298
Ni 13.641461  8.125724  2.701042
Ni 13.643087  9.941633  0.895061
Al 11.850628  8.129382  0.897096
Ni  8.246850 13.560690  2.713276
Ni 10.075946 11.752275  2.724980
Ni 10.054652 13.557183  0.890904
Al  8.330973 11.734290  0.973142
Ni 11.845158 13.570786  2.705024
Ni 13.643654 11.756842  2.700992
Ni 13.630381 13.566927  0.889353
Al 11.847354 11.754057  0.894206
Ni  8.222734  2.716993  6.338354
Ni 10.025700  0.899611  6.332098
Ni 10.035625  2.707111  4.516947
Al  8.269120  0.904722  4.523427
Ni 11.830527  2.707323  6.325005
Ni 13.634632  0.909672  6.317461
Ni 13.628293  2.711546  4.506557
Al 11.831110  0.908091  4.514077
Ni  8.235224  6.334488  6.304382
Ni 10.039463  4.515525  6.330156
Ni 10.052134  6.317035  4.509303
Al  8.281364  4.515320  4.529775
Ni 11.845201  6.316364  6.314387
Ni 13.631473  4.512778  6.316384
Ni 13.637102  6.314172  4.506383
Al 11.830409  4.507411  4.508493
Ni  8.225216  9.948085  6.290518
Ni 10.065812  8.136200  6.295194
Ni 10.063905  9.944730  4.512297
Al  8.271144  8.134718  4.503310
Ni 11.855455  9.948716  6.310458
Ni 13.641073  8.128051  6.312128
Ni 13.649339  9.942583  4.508131
Al 11.857283  8.127480  4.509072
Ni  8.209723 13.541656  6.321063
Ni 10.039360 11.754044  6.311977
Ni 10.042708 13.564938  4.520843
Al  8.267835 11.745086  4.495675
Ni 11.840877 13.565678  6.320229
Ni 13.647698 11.756464  6.313710
Ni 13.641728 13.570899  4.508597
Al 11.855007 11.760886  4.516377
Ni  0.981857  2.644760  9.869091
Ni  2.762595  0.858266  9.879463
Al  4.751753 13.545911  6.258679
Ni  0.913404  0.838304  8.052447
Ni  4.491881  2.756267  9.918362
Ni  6.392677  0.876832  9.929285
Ni  4.552787  6.319512  9.879513
Ni  4.620774  0.885693  8.101695
Al  0.815488 11.728488  4.428699
Ni  0.911723  4.554940  8.015677
Ni  0.913747  6.401061  9.902905
Al  2.789690 13.652057  4.392560
Ni  4.577579  8.137184 11.701260
Ni  6.445033  4.556690  9.920527
Ni  6.420912  6.371520  8.094426
Ni  2.778442  6.346973  8.064177
Ni  0.964821  9.943388  9.895143
Ni  4.590209  8.131253  8.074676
Ni  2.763029  9.958897  8.040232
Al  4.651384  9.942755  6.316063
Ni  4.546317  9.977255  9.884881
Ni  6.441480  6.403510 11.726482
Ni  6.419503  9.934325  8.109726
Al  2.783340  9.870151  4.372294
Ni  0.950432 13.505226  9.871374
Ni  4.568723 11.779798  8.071800
Ni  0.975644 11.737154  8.016929
Ni  4.546483 13.508718  9.891278
Ni  6.396862 11.715856  9.924906
Ni  6.420568 13.544164  8.128214
Ni  2.796881 11.770904  6.172378
Ni  0.927873  2.660790 13.549697
Ni  2.796844  0.873495 13.574461
Al  4.715931  4.515266  8.133116
Ni  0.904508  0.812771 11.726307
Al  1.054296  6.388774  6.197770
Ni  6.470380  0.842800 13.531209
Ni  6.406202  2.702715 11.695635
Ni  4.613710  0.882424 11.710029
Ni  1.021070  6.321637 13.585991
Ni  2.829072  4.419148 13.452863
Ni  2.748495  6.307037 11.717110
Ni  0.927593  4.503430 11.728198
Ni  4.582522  6.269499 13.551382
Ni  8.200441  2.702458 13.513392
Al  2.870302 13.640650  1.043721
Ni  6.447300  4.542484 13.511798
Ni  0.979617 11.772828 11.746723
Al  0.960074  8.085337  0.929307
Ni  1.015610  8.210008 11.794512
Ni  4.561704  9.971094 13.587540
Ni  6.406552  9.947734 11.758065
Ni  2.772813  9.990835 11.745557
Al  4.681988  6.181561  2.827633
Al  2.797566  6.086947  0.906108
Ni  2.829911 11.825322 13.600507
Ni  2.766642 13.561281 11.714426
Ni  4.598012 13.576920 13.581574
Ni  6.403295 13.497352 11.739352
Al  4.774636  2.758955  2.740697
Al  4.601602  6.365352  6.181767
Al  2.748428  2.706488  0.809371
Al  0.898091  2.734448  2.720387
Ni  0.934188  0.910705  0.926972
Ni  6.491968  0.904438  2.706482
Ni  4.663237  0.956893  0.924399
Al  4.594548 11.766554 11.729134
Al  6.354344 11.725051 13.655457
Al  2.704438 11.682028  9.882983
Ni  0.924189  6.252169  2.696059
Al  0.990811 13.569527 13.605202
Ni  0.912867  4.475861  0.890890
Ni  2.812170  4.371617  2.742846
Ni  6.498405  4.517396  2.712845
Ni  6.424967  6.322748  0.897813
Ni  4.661166  4.444156  0.890171
Al  6.262065  8.150156 13.559837
Ni  0.938026  9.910278  2.668682
Ni  2.787961  8.018206  2.640702
Ni  2.778361  9.916393  0.926863
Al  1.032241 10.108529 13.611628
Ni  4.601303  9.910270  2.692326
Ni  6.437160  8.110726  2.679379
Ni  6.413990  9.909833  0.917938
Ni  4.572493  8.033295  0.934811
Al  2.909023  8.119148 13.476904
Ni  0.946605 13.598022  2.690915
Ni  2.769486 11.757098  2.742179
Al  4.703668  4.598891 11.678186
Ni  0.995927 11.802111  0.939700
Ni  4.638160 13.603525  2.738849
Ni  6.450264 11.735868  2.678296
Ni  6.431302 13.551852  0.921279
Ni  4.599381 11.765358  0.959120
Ni  0.937115  2.678505  6.263229
Ni  2.812973  0.835112  6.255714
Ni  2.813732  1.066885  2.720698
Ni  0.924320  0.917651  4.450090
Ni  4.630262  2.745762  6.307038
Ni  6.466356  0.904132  6.325071
Ni  6.453678  2.738463  4.535536
Ni  4.676803  0.940557  4.510794
Al  4.764844  2.624495 13.552022
Ni  0.975689  8.157438  8.046417
Ni  2.818991  4.525316  6.345722
Ni  2.814747  6.256227  4.453810
Ni  0.925832  4.503254  4.515383
Al  2.663312  2.559069 11.730633
Ni  6.413449  2.694240  8.147106
Ni  6.456654  6.312555  4.512350
Ni  6.416636  4.543600  6.309721
Al  2.711659 13.599966  8.031152
Ni  0.987401  9.915794  6.198691
Ni  2.816608  8.160364  6.241085
Al  6.272028  8.170265  9.920630
Ni  0.944644  8.111452  4.423455
Al  2.777344  8.156978  9.911947
Ni  6.433084  8.149395  6.297442
Ni  6.428236  9.939094  4.481407
Ni  4.634995  8.132028  4.456643
Al  2.712845  2.571799  8.013183
Al  2.818798  2.715784  4.650562
Ni  0.964090 13.541968  6.197566
Al  2.604498  4.616314  9.872769
Ni  4.633408 11.733901  4.474854
Ni  6.445550 11.725900  6.307797
Ni  6.457508 13.548880  4.485202
%ENDBLOCK POSITIONS_ABS

FIX_ALL_CELL: TRUE
KPOINT_MP_GRID: 1 1 1
