#######################################################
#CASTEP cell file: /home/u2093113/Documents/kART/barriers/CASTEP/castep.cell
#Created using the Atomic Simulation Environment (ASE)#
#######################################################

%BLOCK LATTICE_CART
14.464828  0.000000  0.000000
 0.000000 14.464828  0.000000
 0.000000  0.000000 14.464828
%ENDBLOCK LATTICE_CART

%BLOCK POSITIONS_ABS
Ni  8.191805  6.245428  2.758703
Ni 10.039180  4.458796  2.726231
Ni 10.017729  6.274887  0.931488
Al  8.242154  4.464165  0.941072
Ni 11.833354  6.276512  2.718681
Ni 13.637901  4.475945  2.711128
Ni 13.632023  6.282732  0.905987
Al 11.831520  4.478778  0.906418
Ni  8.161941  9.947642  2.773466
Ni 10.021215  8.086784  2.727507
Ni 10.022046  9.875743  0.925475
Al  8.228764  8.081684  0.961444
Ni 11.842326  9.885360  2.713289
Ni 13.633631  8.082729  2.714541
Ni 13.635990  9.880603  0.903968
Al 11.822832  8.076967  0.913772
Ni  8.234089 13.492478  2.679039
Ni 10.062673 11.703438  2.698253
Ni 10.065721 13.515889  0.886064
Al  8.315227 11.705773  0.863126
Ni 11.863025 13.507576  2.696097
Ni 13.640273 11.691746  2.705881
Ni 13.645603 13.501412  0.896467
Al 11.842990 11.686373  0.896199
Ni  8.227331  2.649455  2.715415
Ni 10.068918  0.847952  2.688971
Ni 10.040126  2.668560  0.902472
Al  8.271352  0.856042  0.908134
Ni 11.851360  2.663381  2.704405
Ni 13.646592  0.853230  2.702896
Ni 13.642930  2.672547  0.900204
Al 11.854695  0.860908  0.890281
Ni  8.226847  6.252053  6.331571
Ni 10.052265  4.435277  6.314316
Ni 10.044421  6.251545  4.531206
Al  8.242392  4.427998  4.529851
Ni 11.836946  6.276353  6.330115
Ni 13.636675  4.473163  6.336469
Ni 13.632421  6.280857  4.524840
Al 11.849363  4.460703  4.521128
Ni  8.166949  9.972416  6.264148
Ni 10.036967  8.103347  6.316402
Ni 10.041903  9.903249  4.519817
Al  8.293896  8.028562  4.521675
Ni 11.847066  9.897977  6.328937
Ni 13.631660  8.086754  6.334605
Ni 13.639768  9.889620  4.522173
Al 11.833871  8.084645  4.522200
Ni  8.226749 13.529983  6.368246
Ni 10.061585 11.720122  6.341286
Ni 10.093349 13.527488  4.516221
Al  8.355589 11.788602  4.523212
Ni 11.870666 13.506600  6.340915
Ni 13.645407 11.694946  6.337401
Ni 13.646087 13.503395  4.518888
Al 11.856114 11.701441  4.518706
Ni  8.242035  2.565669  6.328961
Ni 10.070521  0.830883  6.339436
Ni 10.061538  2.639606  4.516670
Al  8.313148  0.825355  4.465918
Ni 11.861857  2.649021  6.329659
Ni 13.653768  0.848580  6.338360
Ni 13.646290  2.661636  4.519656
Al 11.867722  0.851447  4.515464
Ni  8.185237  6.281432  9.842412
Ni 10.042672  4.479984  9.946858
Ni 10.035507  6.276945  8.118150
Al  8.329303  4.380887  8.106435
Ni 11.828356  6.286291  9.948006
Ni 13.637774  4.483858  9.955188
Ni 13.632710  6.284726  8.144039
Al 11.841661  4.472666  8.141217
Ni  8.203853  9.891349  9.961567
Ni 10.017134  8.083790  9.940374
Ni 10.044247  9.907425  8.129768
Al  8.291656  8.160398  8.096563
Ni 11.836368  9.877639  9.957653
Ni 13.633435  8.083405  9.952312
Ni 13.636014  9.886757  8.147842
Al 11.828297  8.088234  8.136914
Ni  8.253602 13.496510  9.988751
Ni 10.058828 11.686324  9.981917
Ni 10.087484 13.502184  8.168898
Al  8.319861 11.710381  8.188143
Ni 11.865357 13.496622  9.974945
Ni 13.644996 11.685808  9.961757
Ni 13.650865 13.500275  8.155658
Al 11.854012 11.693356  8.155595
Ni  8.259334  2.655567  9.963472
Ni 10.091762  0.848158  9.990717
Ni 10.093686  2.639541  8.148495
Al  8.355720  0.837100  8.233134
Ni 11.856841  2.673710  9.969501
Ni 13.649307  0.852831  9.964589
Ni 13.639388  2.665343  8.150651
Al 11.868704  0.844887  8.158456
Ni  8.206251  6.281034 13.600621
Ni 10.016592  4.480708 13.573493
Ni  9.993248  6.288326 11.743788
Al  8.259627  4.483391 11.745406
Ni 11.816761  6.282909 13.566812
Ni 13.637484  4.485083 13.563585
Ni 13.633587  6.285683 11.759369
Al 11.826213  4.491471 11.763672
Ni  8.209978  9.885556 13.577187
Ni 10.006818  8.075390 13.579755
Ni 10.023327  9.868987 11.764438
Al  8.221245  8.075673 11.756592
Ni 11.829290  9.869359 13.569729
Ni 13.632643  8.079183 13.566584
Ni 13.637422  9.876218 11.763023
Al 11.819104  8.073841 11.760674
Ni  8.232158 13.516541 13.550842
Ni 10.053557 11.686277 13.553873
Ni 10.061735 13.500437 11.774190
Al  8.249492 11.688747 11.772236
Ni 11.855655 13.505397 13.561197
Ni 13.640083 11.684622 13.565026
Ni 13.652220 13.499675 11.766279
Al 11.849227 11.679091 11.769082
Ni  8.217342  2.658646 13.564938
Ni 10.046961  0.861837 13.559468
Ni 10.046713  2.676856 11.770571
Al  8.275328  0.852439 11.752658
Ni 11.843665  2.678947 13.565034
Ni 13.650913  0.857080 13.562652
Ni 13.646828  2.677143 11.764076
Al 11.860204  0.859313 11.775601
Ni  1.053465  6.236668  2.701954
Ni  2.776309  4.432669  2.701084
Al  4.756936  2.650502 13.518817
Ni  0.939015  4.431318  0.870388
Ni  4.515390  6.254545  2.719261
Ni  6.397220  4.440302  2.757654
Ni  4.585901  8.065504  0.914616
Ni  4.630763  4.415565  0.907178
Al  0.811060  0.843629 11.693145
Ni  0.955118  8.107357  0.838110
Ni  0.942665  9.950257  2.702722
Al  2.784799  2.757750 11.644662
Ni  4.557876  9.910152  2.666930
Ni  6.390819  8.063774  2.743967
Ni  6.428521  9.922112  0.960589
Ni  2.752037  9.929637  0.892225
Ni  0.948716 13.518100  2.677341
Ni  4.582535 11.758075  0.901624
Ni  2.750710 13.549607  0.830297
Al  4.656067 13.534501 13.584707
Ni  4.542962 13.583126  2.671808
Ni  4.606161 11.746420  4.483500
Ni  6.436208 13.540121  0.892455
Al  2.788307 13.451931 11.648921
Ni  0.945355  2.619209  2.666808
Ni  4.570864  0.900286  0.861420
Ni  0.965021  0.852200  0.808223
Ni  4.553703  2.601811  2.691760
Ni  6.415527  0.827948  2.709027
Ni  6.437396  2.648832  0.927016
Ni  2.794176  0.894997 13.431491
Ni  0.949171  6.232375  6.328623
Ni  2.773382  4.359008  6.333519
Al  4.607794  9.974664 13.656604
Ni  0.925110  4.399663  4.515553
Al  1.081698  9.940727 13.447302
Ni  6.459404  4.377890  6.303344
Ni  6.340189  6.254357  4.595974
Ni  4.615209  4.407198  4.538990
Ni  1.016251  9.920502  6.365817
Ni  2.770773  8.064519  6.264487
Ni  2.768560  9.914566  4.496023
Ni  0.959228  8.079980  4.508017
Ni  4.571287  9.873798  6.337437
Ni  6.426186  8.112061  6.278081
Al  2.854800  2.699931  8.274188
Ni  4.538009  8.023887  4.504474
Ni  0.952081  0.863079  4.524018
Al  0.958845 11.673991  8.187146
Ni  1.003503 11.790314  4.573936
Ni  4.557692 13.574592  6.364851
Ni  6.429459 13.548553  4.539275
Ni  2.765157 13.567961  4.526853
Al  4.710494  9.917063  9.957758
Al  2.791734  9.693667  8.150208
Ni  2.805700  0.919900  6.379231
Ni  2.752035  2.628697  4.488779
Ni  4.600104  2.612132  6.352508
Ni  6.423631  2.574950  4.530903
Al  4.701820  6.185564  9.950431
Al  4.738454  8.042265 11.851071
Al  2.868950  6.250722  7.914105
Al  0.953946  6.293987  9.902250
Ni  0.938267  4.468243  8.144934
Ni  6.491806  4.469524  9.879239
Ni  4.647751  4.470642  8.082516
Al  4.598456  0.865831  4.508115
Al  6.379786  0.821357  6.436753
Al  2.689485  0.786327  2.672095
Ni  0.960913  9.823955  9.957571
Al  0.957954  2.639617  6.379068
Ni  0.938644  8.047610  8.144439
Ni  2.861236  7.942937  9.986211
Ni  6.435418  8.059306  9.901566
Ni  6.433059  9.916766  8.101146
Ni  4.640477  8.036242  8.122129
Al  6.277368 11.799744  6.362590
Ni  0.935644 13.484038  9.940482
Ni  2.791891 11.620729  9.904477
Ni  2.766177 13.504316  8.177693
Al  1.011131 13.678501  6.391381
Ni  4.603937 13.483095  9.962955
Ni  6.450216 11.712580  9.930395
Ni  6.432494 13.508469  8.177956
Ni  4.569931 11.673386  8.153505
Al  2.903084 11.715501  6.246494
Ni  0.938506  2.693699  9.929917
Ni  2.764680  0.860027 10.002267
Al  6.258215  9.816773  4.499107
Ni  0.975593  0.893149  8.194338
Ni  4.636123  2.704722  9.969578
Ni  6.455868  0.840554  9.940443
Ni  6.446107  2.630207  8.155958
Ni  4.601380  0.860792  8.215974
Ni  0.958330  6.243322 13.537703
Ni  2.814998  4.385510 13.538033
Ni  2.790972  4.585188  9.912403
Ni  0.919724  4.475588 11.691602
Ni  4.632028  6.246590 13.578883
Ni  6.473076  4.465781 13.584349
Ni  6.469084  6.259370 11.755710
Ni  4.674526  4.472713 11.757826
Al  6.328147  6.256654  7.892018
Ni  0.971521 11.729807  0.839248
Ni  2.808985  8.080404 13.569981
Ni  2.883740  9.842636 11.720340
Ni  0.958732  8.056317 11.739921
Al  2.797856  6.155772  4.621673
Ni  6.395111  6.252358  0.959912
Ni  6.416405  9.888977 11.785281
Ni  6.433567  8.095305 13.641282
Al  2.709737  2.704365  0.842996
Ni  0.986050 13.492926 13.457244
Ni  2.819739 11.736967 13.518424
Al  6.285433 11.817616  2.678879
Ni  0.962278 11.677243 11.691517
Al  2.773915 11.749959  2.708480
Ni  6.437014 11.716111 13.598535
Ni  6.432915 13.512513 11.754670
Ni  4.648436 11.706246 11.761728
Al  2.778485  6.169067  0.820858
Al  2.766361  6.182700 11.891861
Ni  0.959867  2.659868 13.466358
Al  2.733587  8.175687  2.693729
Ni  4.636074  0.853555 11.731039
Ni  6.457145  0.847240 13.557295
Ni  6.463325  2.666311 11.722409
%ENDBLOCK POSITIONS_ABS

FIX_ALL_CELL: TRUE
KPOINT_MP_GRID: 1 1 1
