#######################################################
#CASTEP cell file: /home/u2093113/Documents/kART/CASTEP/castep.cell
#Created using the Atomic Simulation Environment (ASE)#
#######################################################

%BLOCK LATTICE_CART
14.464828  0.000000  0.000000
 0.000000 14.464828  0.000000
 0.000000  0.000000 14.464828
%ENDBLOCK LATTICE_CART

%BLOCK POSITIONS_ABS
Al  8.230435  4.448567  0.927380
Al 11.848706  4.462046  0.915440
Al  8.226961  8.095867  0.967373
Al 11.858185  8.086337  0.927511
Al  8.311804 11.698103  0.851027
Al 11.883207 11.687971  0.900139
Al  8.250877  0.853815  0.918949
Al 11.862280  0.853182  0.899226
Al  8.225377  4.430302  4.517169
Al 11.848880  4.473536  4.517876
Al  8.288751  8.001763  4.497430
Al 11.855134  8.074492  4.527296
Al  8.399243 11.803797  4.538329
Al 11.874700 11.681911  4.531005
Al  8.305538  0.823804  4.457007
Al 11.884634  0.863277  4.513625
Al  8.181031  4.472104  8.129630
Al 11.826998  4.488411  8.137556
Al  8.166236  8.058536  8.129664
Al 11.820442  8.070260  8.128684
Al  8.300922 11.706518  8.202219
Al 11.891271 11.670938  8.149677
Al  8.350540  0.831625  8.243044
Al 11.837746  0.852827  8.152270
Al  8.259165  4.460110 11.781239
Al 11.807452  4.485978 11.761688
Al  8.209069  8.081075 11.788817
Al 11.826793  8.080401 11.762333
Al  8.234086 11.693345 11.779832
Al 11.841140 11.668268 11.777716
Al  8.252578  0.845036 11.755075
Al 11.879224  0.842955 11.775120
Al  4.764697  2.654101 13.542753
Al  0.824987  0.870775 11.741633
Al  2.804252  2.758694 11.633866
Al  4.663663 13.541142 13.633735
Al  2.780940 13.411065 11.669634
Al  4.608801  9.988451 13.690276
Al  0.988522  9.875559 13.548812
Al  2.857359  2.700194  8.265780
Al  0.868605 11.665207  8.273088
Al  4.729192  9.970357  9.962855
Al  2.792407  9.652914  8.154784
Al  4.927685  6.195168  9.778872
Al  4.713096  8.026824 11.866122
Al  2.769356  6.273874  8.038074
Al  0.821085  6.267855  9.957583
Al  4.545988  0.852565  4.525344
Al  6.374307  0.843402  6.444805
Al  2.640647  0.784575  2.691699
Al  0.915400  2.673733  6.278816
Al  6.249880 11.797416  6.380886
Al  0.898880 13.641378  6.286626
Al  2.888538 11.700182  6.237561
Al  6.236717  9.790532  4.485251
Al  4.887090  6.225713  6.370259
Al  2.727224  6.151783  4.527425
Al  2.697794  2.716216  0.877202
Al  6.288040 11.821450  2.654001
Al  2.763048 11.713966  2.709632
Al  2.800536  6.177397  0.822029
Al  2.760804  6.169296 11.927588
Al  2.767010  8.196248  2.689132
Ni  8.215303  6.242726  2.703056
Ni 10.047068  4.455271  2.722926
Ni 10.046970  6.275667  0.938902
Ni 11.860992  6.275304  2.724383
Ni 13.662074  4.478128  2.703021
Ni 13.640598  6.289447  0.913675
Ni  8.176082  9.976630  2.826780
Ni 10.044196  8.086005  2.729078
Ni 10.052369  9.880969  0.938865
Ni 11.867130  9.878047  2.733498
Ni 13.685832  8.076588  2.726877
Ni 13.674728  9.885257  0.923897
Ni  8.250802 13.462962  2.709153
Ni 10.081491 11.694032  2.706256
Ni 10.055471 13.507643  0.903875
Ni 11.870741 13.507311  2.692857
Ni 13.658080 11.687265  2.719141
Ni 13.672391 13.494526  0.890371
Ni  8.229968  2.650450  2.729076
Ni 10.077269  0.847683  2.701378
Ni 10.041141  2.656503  0.910286
Ni 11.855658  2.662419  2.694087
Ni 13.683145  0.857166  2.686565
Ni 13.668149  2.661481  0.899342
Ni  8.162855  6.245895  6.324923
Ni 10.014760  4.466208  6.332247
Ni 10.041130  6.249128  4.518887
Ni 11.823631  6.284570  6.312348
Ni 13.649558  4.492673  6.320489
Ni 13.674934  6.276148  4.511259
Ni  8.170369  9.994786  6.224931
Ni  9.988037  8.081417  6.330530
Ni 10.054470  9.887116  4.531111
Ni 11.849872  9.860137  6.337066
Ni 13.674283  8.076014  6.323452
Ni 13.685195  9.882217  4.541614
Ni  8.239342 13.524176  6.362795
Ni 10.081081 11.700441  6.355255
Ni 10.112226 13.532489  4.528088
Ni 11.889825 13.486548  6.343239
Ni 13.704786 11.673863  6.340496
Ni 13.653173 13.506787  4.495415
Ni  8.245361  2.566345  6.343004
Ni 10.086835  0.833445  6.336134
Ni 10.056788  2.650454  4.529796
Ni 11.849807  2.692226  6.336412
Ni 13.609461  0.887028  6.357171
Ni 13.625083  2.671043  4.482416
Ni  8.167414  6.264984  9.935595
Ni 10.017855  4.479625  9.940521
Ni  9.979186  6.275829  8.130002
Ni 11.838150  6.285199  9.944935
Ni 13.622972  4.445779  9.947581
Ni 13.614948  6.272389  8.096343
Ni  8.203814  9.889262  9.957320
Ni  9.993348  8.074793  9.939436
Ni 10.005294  9.874842  8.123857
Ni 11.816501  9.866875  9.942702
Ni 13.635558  8.104002  9.947982
Ni 13.663068  9.840505  8.143916
Ni  8.260078 13.504218  9.970752
Ni 10.054489 11.678797  9.972615
Ni 10.078245 13.487069  8.152559
Ni 11.855473 13.485712  9.964948
Ni 13.631290 11.654428 10.002126
Ni 13.665521 13.520271  8.167098
Ni  8.268552  2.646368  9.948002
Ni 10.087587  0.840007  9.989166
Ni 10.050892  2.668914  8.137942
Ni 11.826405  2.667796  9.954060
Ni 13.632654  0.872361  9.924720
Ni 13.635825  2.677337  8.157838
Ni  8.238621  6.280989 13.618952
Ni 10.033707  4.467647 13.590038
Ni 10.017065  6.288060 11.763005
Ni 11.818342  6.273191 13.588682
Ni 13.643169  4.480328 13.569961
Ni 13.612236  6.282911 11.799546
Ni  8.228684  9.873331 13.604283
Ni 10.035837  8.084334 13.596957
Ni 10.021880  9.869602 11.769668
Ni 11.858394  9.874085 13.574587
Ni 13.650335  8.066748 13.571995
Ni 13.650016  9.854891 11.742809
Ni  8.242241 13.516152 13.559345
Ni 10.060681 11.681496 13.564530
Ni 10.058985 13.495717 11.772840
Ni 11.847900 13.499596 13.571310
Ni 13.671746 11.701679 13.541441
Ni 13.642383 13.470437 11.751382
Ni  8.228949  2.654314 13.580244
Ni 10.049838  0.850856 13.569187
Ni 10.046069  2.659087 11.772605
Ni 11.846428  2.669137 13.575899
Ni 13.636888  0.842175 13.581407
Ni 13.602663  2.704057 11.757928
Ni  1.011408  6.282495  2.694904
Ni  2.786858  4.436257  2.703794
Ni  0.947377  4.488296  0.886085
Ni  4.551597  6.254910  2.713985
Ni  6.378412  4.430334  2.725911
Ni  4.592877  8.042354  0.925615
Ni  4.635156  4.411292  0.917601
Ni  0.980336  8.053859  0.911840
Ni  0.955966  9.902985  2.714582
Ni  4.605402  9.900556  2.661551
Ni  6.376921  8.047106  2.717016
Ni  6.431264  9.922064  0.959949
Ni  2.751713  9.911344  0.887767
Ni  0.941520 13.476842  2.718189
Ni  4.537374 11.753321  0.911273
Ni  2.748750 13.529658  0.860842
Ni  4.557433 13.598028  2.697802
Ni  4.611271 11.737988  4.478890
Ni  6.433735 13.539712  0.915944
Ni  0.969936  2.674657  2.693401
Ni  4.563805  0.903124  0.903506
Ni  0.986563  0.849459  0.847075
Ni  4.572073  2.611255  2.709329
Ni  6.413282  0.828321  2.692000
Ni  6.421674  2.634528  0.955417
Ni  2.779233  0.891624 13.472282
Ni  0.956557  6.244156  6.307531
Ni  2.825161  4.431982  6.341494
Ni  0.952042  4.446599  4.493158
Ni  6.438854  4.337312  6.301622
Ni  6.406299  6.244217  4.472874
Ni  4.605878  4.424412  4.517670
Ni  1.054203  9.906222  6.369552
Ni  2.823216  7.988265  6.284933
Ni  2.808788  9.887228  4.522263
Ni  1.015957  8.080713  4.522978
Ni  4.585468  9.843051  6.323828
Ni  6.453863  8.118715  6.298349
Ni  4.530234  7.999321  4.503144
Ni  0.930818  0.891688  4.499601
Ni  0.979351 11.688081  4.547612
Ni  4.553793 13.584360  6.357718
Ni  6.406693 13.548465  4.536958
Ni  2.752370 13.539043  4.535109
Ni  2.750143  0.926286  6.392300
Ni  2.784159  2.660958  4.489625
Ni  4.613616  2.643312  6.323296
Ni  6.406356  2.559006  4.521405
Ni  0.967853  4.465891  8.131369
Ni  6.468830  4.367325  9.978428
Ni  4.685353  4.449642  8.117885
Ni  1.022754  9.797263  9.965066
Ni  0.963663  8.016353  8.130711
Ni  2.901675  7.872916 10.041486
Ni  6.393917  8.127359  9.982815
Ni  6.444782  9.913585  8.096215
Ni  4.690747  8.048032  8.108475
Ni  0.959660 13.515159  9.965906
Ni  2.782550 11.613655  9.905679
Ni  2.698255 13.475433  8.096905
Ni  4.595010 13.482138  9.917901
Ni  6.432023 11.733313  9.963533
Ni  6.410408 13.504749  8.183071
Ni  4.517393 11.686071  8.160170
Ni  0.960384  2.715102  9.962055
Ni  2.760354  0.830848 10.010818
Ni  0.980433  0.911372  8.204892
Ni  4.654828  2.661393  9.966821
Ni  6.410136  0.839531  9.953613
Ni  6.426578  2.626596  8.160288
Ni  4.566644  0.835669  8.201970
Ni  0.939868  6.274522 13.584308
Ni  2.820289  4.351519 13.546679
Ni  2.825068  4.677768  9.933536
Ni  0.942903  4.481064 11.762148
Ni  4.650569  6.212836 13.583419
Ni  6.445487  4.486440 13.577558
Ni  6.457203  6.255568 11.783250
Ni  4.673124  4.466211 11.745177
Ni  0.971026 11.716259  0.890397
Ni  2.827655  8.085189 13.559201
Ni  2.893583  9.859558 11.723130
Ni  1.002578  8.047872 11.761853
Ni  6.394059  6.249820  0.938028
Ni  6.395101  9.902618 11.834549
Ni  6.412089  8.067282 13.638588
Ni  0.988262 13.507267 13.512670
Ni  2.768349 11.731194 13.544420
Ni  0.986312 11.641397 11.711566
Ni  6.433228 11.716373 13.598187
Ni  6.420051 13.506275 11.735425
Ni  4.638955 11.749508 11.777110
Ni  0.941581  2.665505 13.521168
Ni  4.632070  0.827771 11.730708
Ni  6.447137  0.839861 13.557456
Ni  6.472218  2.633550 11.738993
%ENDBLOCK POSITIONS_ABS

