#######################################################
#CASTEP cell file: /home/u2093113/Documents/kART/CASTEP/castep.cell
#Created using the Atomic Simulation Environment (ASE)#
#######################################################

%BLOCK LATTICE_CART
14.464828  0.000000  0.000000
 0.000000 14.464828  0.000000
 0.000000  0.000000 14.464828
%ENDBLOCK LATTICE_CART

%BLOCK POSITIONS_ABS
Al  8.223520  4.456813  0.928379
Al 11.845945  4.470358  0.913882
Al  8.220760  8.092436  0.970038
Al 11.857004  8.085317  0.926280
Al  8.308756 11.693606  0.845970
Al 11.880646 11.685953  0.894377
Al  8.247551  0.858970  0.912754
Al 11.859630  0.857257  0.892290
Al  8.221180  4.436853  4.527627
Al 11.855244  4.475490  4.505983
Al  8.282630  8.001535  4.509356
Al 11.864042  8.079360  4.519659
Al  8.403895 11.808632  4.532919
Al 11.877743 11.683793  4.522620
Al  8.308751  0.822051  4.451450
Al 11.885937  0.865474  4.501343
Al  8.240382  4.421943  8.115532
Al 11.836880  4.488422  8.131109
Al  8.218509  8.115415  8.110003
Al 11.832977  8.074917  8.124037
Al  8.301885 11.706241  8.199101
Al 11.898237 11.676938  8.149717
Al  8.351978  0.835304  8.239737
Al 11.845927  0.851502  8.151054
Al  8.250889  4.472192 11.761813
Al 11.813371  4.491905 11.764631
Al  8.202178  8.074966 11.767649
Al 11.832426  8.078217 11.763287
Al  8.229068 11.691439 11.775273
Al 11.841649 11.668108 11.778315
Al  8.244799  0.848928 11.751748
Al 11.874974  0.847831 11.778279
Al  4.767159  2.657406 13.543885
Al  0.824744  0.873429 11.746555
Al  2.799829  2.759487 11.633104
Al  4.667667 13.543130 13.632325
Al  2.781352 13.414995 11.673134
Al  4.610742  9.984879 13.689690
Al  0.994767  9.875188 13.547227
Al  2.840094  2.679865  8.261778
Al  0.863284 11.676203  8.274292
Al  4.732706  9.963758  9.950193
Al  2.777277  9.680778  8.157927
Al  4.817860  6.180474  9.851271
Al  4.707631  8.034542 11.865282
Al  2.822905  6.264133  7.959043
Al  0.830489  6.270145  9.937817
Al  4.547776  0.849195  4.519917
Al  6.376269  0.838860  6.442335
Al  2.642119  0.783671  2.684046
Al  0.904157  2.665436  6.270018
Al  6.252206 11.806770  6.380980
Al  0.892989 13.644195  6.280458
Al  2.884666 11.708172  6.233268
Al  6.241507  9.801544  4.488618
Al  5.588162  6.232921  7.106266
Al  2.785956  6.154150  4.586455
Al  2.704599  2.724404  0.883095
Al  6.290391 11.823742  2.651728
Al  2.764863 11.719697  2.702977
Al  2.807920  6.179575  0.828161
Al  2.746843  6.171064 11.930353
Al  2.780228  8.189716  2.702078
Ni  8.198606  6.245009  2.723982
Ni 10.041015  4.459849  2.721231
Ni 10.035841  6.279964  0.941506
Ni 11.863976  6.279081  2.719975
Ni 13.668171  4.483024  2.699535
Ni 13.649425  6.291268  0.919740
Ni  8.176230  9.974980  2.827743
Ni 10.038438  8.087380  2.730098
Ni 10.047020  9.877605  0.934519
Ni 11.868776  9.878675  2.726798
Ni 13.691528  8.078823  2.723695
Ni 13.677995  9.882779  0.919971
Ni  8.251873 13.464563  2.702918
Ni 10.080585 11.695078  2.697833
Ni 10.050663 13.507435  0.896953
Ni 11.869788 13.507822  2.681901
Ni 13.659203 11.687326  2.709026
Ni 13.671817 13.495628  0.883778
Ni  8.227631  2.654839  2.730560
Ni 10.076024  0.850469  2.691528
Ni 10.034187  2.663581  0.905585
Ni 11.855954  2.667729  2.686370
Ni 13.679783  0.859014  2.675960
Ni 13.667669  2.667185  0.896636
Ni  8.193184  6.249088  6.337415
Ni 10.034014  4.464593  6.319376
Ni 10.046659  6.252929  4.514163
Ni 11.834469  6.287299  6.301495
Ni 13.653448  4.496039  6.309415
Ni 13.681387  6.279601  4.505212
Ni  8.177708  9.998449  6.215312
Ni 10.009447  8.087430  6.318822
Ni 10.058821  9.890952  4.525616
Ni 11.859889  9.866010  6.330274
Ni 13.681386  8.078801  6.318635
Ni 13.687839  9.884986  4.534024
Ni  8.245668 13.525248  6.360023
Ni 10.087741 11.704600  6.350456
Ni 10.116349 13.534016  4.520717
Ni 11.891356 13.488944  6.337035
Ni 13.701393 11.680745  6.335888
Ni 13.648973 13.508497  4.483185
Ni  8.250034  2.563211  6.331936
Ni 10.092910  0.835161  6.330802
Ni 10.058945  2.651623  4.521475
Ni 11.855691  2.692127  6.324553
Ni 13.605267  0.886158  6.347578
Ni 13.628000  2.674917  4.471435
Ni  8.179579  6.267997  9.886830
Ni 10.029168  4.481907  9.938757
Ni 10.009943  6.279043  8.121754
Ni 11.845134  6.286744  9.943430
Ni 13.624877  4.449408  9.945287
Ni 13.619876  6.274411  8.089137
Ni  8.199162  9.888604  9.951601
Ni 10.004531  8.078450  9.934684
Ni 10.027003  9.889929  8.120337
Ni 11.824581  9.868274  9.942963
Ni 13.641344  8.102823  9.945564
Ni 13.667521  9.842053  8.141482
Ni  8.257047 13.505962  9.965897
Ni 10.054650 11.678150  9.972198
Ni 10.081321 13.488953  8.152016
Ni 11.855247 13.488532  9.968105
Ni 13.632230 11.659159 10.006719
Ni 13.661885 13.523290  8.166727
Ni  8.263933  2.650490  9.944792
Ni 10.087362  0.843698  9.988160
Ni 10.069109  2.659372  8.133579
Ni 11.831180  2.670791  9.955664
Ni 13.628095  0.871662  9.929309
Ni 13.633068  2.678248  8.153119
Ni  8.234287  6.284219 13.611221
Ni 10.027732  4.475825 13.583185
Ni 10.016743  6.291082 11.754940
Ni 11.821229  6.276193 13.591853
Ni 13.644690  4.484096 13.573507
Ni 13.618561  6.283484 11.796307
Ni  8.224930  9.866905 13.596603
Ni 10.031203  8.082476 13.591167
Ni 10.020489  9.866159 11.765031
Ni 11.856897  9.871149 13.573774
Ni 13.654161  8.066138 13.574311
Ni 13.650326  9.854221 11.745291
Ni  8.237424 13.516255 13.556500
Ni 10.056726 11.679187 13.558273
Ni 10.053827 13.496605 11.770109
Ni 11.845497 13.500337 13.569477
Ni 13.671536 11.699989 13.540906
Ni 13.639698 13.472365 11.756200
Ni  8.223198  2.664748 13.571038
Ni 10.043320  0.854925 13.563967
Ni 10.043563  2.666579 11.768348
Ni 11.843035  2.675710 13.576419
Ni 13.636491  0.846223 13.582186
Ni 13.601260  2.707774 11.761890
Ni  1.032230  6.285767  2.708293
Ni  2.796543  4.444156  2.716461
Ni  0.954137  4.492274  0.893258
Ni  4.558752  6.259160  2.741970
Ni  6.375762  4.437676  2.740236
Ni  4.596278  8.041458  0.930239
Ni  4.638689  4.419695  0.922476
Ni  0.989706  8.054604  0.916557
Ni  0.961999  9.904242  2.711901
Ni  4.610268  9.902993  2.665649
Ni  6.375198  8.043046  2.736082
Ni  6.434663  9.917539  0.963077
Ni  2.758832  9.907154  0.892533
Ni  0.939247 13.477631  2.708125
Ni  4.543124 11.751657  0.909370
Ni  2.752232 13.529739  0.856288
Ni  4.560539 13.598783  2.693074
Ni  4.611241 11.745038  4.478265
Ni  6.435400 13.539377  0.911757
Ni  0.970875  2.677423  2.688682
Ni  4.566753  0.906205  0.904781
Ni  0.987835  0.853422  0.843893
Ni  4.577046  2.613944  2.709859
Ni  6.415422  0.830237  2.689224
Ni  6.421952  2.642510  0.956241
Ni  2.782948  0.897530 13.474535
Ni  0.969242  6.246686  6.299981
Ni  2.804794  4.379161  6.337444
Ni  0.964076  4.454367  4.488198
Ni  6.427999  4.340645  6.309256
Ni  6.370984  6.243378  4.536803
Ni  4.605983  4.405081  4.530217
Ni  1.045407  9.922342  6.364282
Ni  2.802846  8.040534  6.281117
Ni  2.808125  9.899439  4.516485
Ni  1.019025  8.083358  4.520062
Ni  4.585557  9.855525  6.325577
Ni  6.440249  8.123581  6.305557
Ni  4.532979  8.014442  4.526319
Ni  0.925807  0.887793  4.488522
Ni  0.978047 11.695308  4.538974
Ni  4.550502 13.586768  6.353276
Ni  6.410675 13.550927  4.531981
Ni  2.749325 13.540616  4.526899
Ni  2.741648  0.922701  6.384981
Ni  2.782706  2.647673  4.480354
Ni  4.612779  2.634225  6.324008
Ni  6.405737  2.556456  4.525358
Ni  0.964607  4.467771  8.122248
Ni  6.456629  4.405532  9.934031
Ni  4.653824  4.443748  8.111342
Ni  1.017489  9.803646  9.966917
Ni  0.974175  8.017156  8.124192
Ni  2.884962  7.880871 10.030738
Ni  6.378515  8.086538  9.936307
Ni  6.439809  9.925066  8.088145
Ni  4.650312  8.059442  8.095148
Ni  0.956599 13.519443  9.970267
Ni  2.779315 11.619635  9.908754
Ni  2.693900 13.479206  8.097812
Ni  4.592335 13.487202  9.920211
Ni  6.426714 11.734770  9.960021
Ni  6.407813 13.507432  8.182156
Ni  4.512436 11.695345  8.160705
Ni  0.950006  2.713080  9.961448
Ni  2.756325  0.831410 10.013885
Ni  0.972625  0.907556  8.203093
Ni  4.649230  2.667612  9.957338
Ni  6.405507  0.842442  9.949753
Ni  6.422789  2.619828  8.154406
Ni  4.560264  0.833236  8.199739
Ni  0.939316  6.274626 13.589465
Ni  2.819737  4.356411 13.550550
Ni  2.797422  4.660627  9.923090
Ni  0.939753  4.482645 11.761416
Ni  4.650909  6.215887 13.579778
Ni  6.443489  4.491727 13.573244
Ni  6.454004  6.257967 11.770457
Ni  4.665093  4.461584 11.746334
Ni  0.974653 11.713751  0.886867
Ni  2.827210  8.085107 13.560732
Ni  2.893146  9.857567 11.717481
Ni  1.000762  8.046975 11.760031
Ni  6.391995  6.253157  0.941432
Ni  6.392423  9.890177 11.816013
Ni  6.410544  8.066905 13.632972
Ni  0.989728 13.508005 13.513530
Ni  2.773283 11.729579 13.543581
Ni  0.986619 11.645272 11.715877
Ni  6.433083 11.709343 13.591213
Ni  6.415404 13.506922 11.733632
Ni  4.637064 11.746133 11.774547
Ni  0.942851  2.671177 13.525133
Ni  4.628392  0.835093 11.727637
Ni  6.443917  0.847935 13.551979
Ni  6.466431  2.649628 11.723280
%ENDBLOCK POSITIONS_ABS

