#######################################################
#CASTEP cell file: /home/u2093113/Documents/kART/CASTEP/castep.cell
#Created using the Atomic Simulation Environment (ASE)#
#######################################################

%BLOCK LATTICE_CART
14.464828  0.000000  0.000000
 0.000000 14.464828  0.000000
 0.000000  0.000000 14.464828
%ENDBLOCK LATTICE_CART

%BLOCK POSITIONS_ABS
Al  8.216606  4.465060  0.929378
Al 11.843184  4.478670  0.912324
Al  8.214559  8.089005  0.972703
Al 11.855824  8.084296  0.925050
Al  8.305708 11.689108  0.840914
Al 11.878086 11.683934  0.888616
Al  8.244226  0.864124  0.906559
Al 11.856981  0.861332  0.885353
Al  8.216982  4.443405  4.538084
Al 11.861608  4.477445  4.494091
Al  8.276509  8.001308  4.521282
Al 11.872950  8.084228  4.512023
Al  8.408548 11.813466  4.527508
Al 11.880786 11.685675  4.514235
Al  8.311964  0.820298  4.445892
Al 11.887240  0.867672  4.489061
Al  8.299734  4.371782  8.101435
Al 11.846763  4.488434  8.124663
Al  8.270782  8.172293  8.090342
Al 11.845511  8.079574  8.119390
Al  8.302847 11.705965  8.195984
Al 11.905202 11.682937  8.149758
Al  8.353417  0.838984  8.236431
Al 11.854108  0.850177  8.149837
Al  8.242612  4.484275 11.742387
Al 11.819291  4.497833 11.767573
Al  8.195287  8.068857 11.746481
Al 11.838060  8.076033 11.764241
Al  8.224050 11.689532 11.770713
Al 11.842157 11.667947 11.778914
Al  8.237020  0.852820 11.748422
Al 11.870723  0.852707 11.781437
Al  4.769620  2.660711 13.545017
Al  0.824502  0.876082 11.751477
Al  2.795406  2.760280 11.632342
Al  4.671671 13.545118 13.630915
Al  2.781764 13.418925 11.676635
Al  4.612683  9.981306 13.689103
Al  1.001011  9.874817 13.545641
Al  2.822829  2.659535  8.257776
Al  0.857963 11.687198  8.275496
Al  4.736220  9.957159  9.937531
Al  2.762147  9.708643  8.161070
Al  4.708036  6.165779  9.923669
Al  4.702166  8.042261 11.864442
Al  2.876454  6.254391  7.880011
Al  0.839893  6.272434  9.918051
Al  4.549564  0.845825  4.514490
Al  6.378231  0.834317  6.439865
Al  2.643591  0.782766  2.676393
Al  0.892915  2.657140  6.261220
Al  6.254532 11.816124  6.381074
Al  0.887098 13.647011  6.274290
Al  2.880794 11.716161  6.228975
Al  6.246298  9.812556  4.491985
Al  6.289234  6.240128  7.842273
Al  2.844688  6.156517  4.645485
Al  2.711404  2.732593  0.888987
Al  6.292741 11.826033  2.649455
Al  2.766679 11.725428  2.696323
Al  2.815304  6.181754  0.834293
Al  2.732881  6.172831 11.933119
Al  2.793446  8.183184  2.715024
Ni  8.181909  6.247291  2.744909
Ni 10.034961  4.464428  2.719536
Ni 10.024713  6.284262  0.944110
Ni 11.866961  6.282859  2.715568
Ni 13.674269  4.487921  2.696049
Ni 13.658253  6.293089  0.925806
Ni  8.176379  9.973330  2.828706
Ni 10.032680  8.088755  2.731118
Ni 10.041670  9.874241  0.930174
Ni 11.870423  9.879302  2.720098
Ni 13.697225  8.081059  2.720513
Ni 13.681262  9.880301  0.916045
Ni  8.252943 13.466163  2.696683
Ni 10.079678 11.696124  2.689409
Ni 10.045854 13.507228  0.890032
Ni 11.868835 13.508333  2.670945
Ni 13.660327 11.687388  2.698911
Ni 13.671244 13.496730  0.877185
Ni  8.225294  2.659228  2.732045
Ni 10.074778  0.853256  2.681677
Ni 10.027233  2.670660  0.900883
Ni 11.856250  2.673039  2.678653
Ni 13.676421  0.860863  2.665355
Ni 13.667188  2.672888  0.893930
Ni  8.223512  6.252280  6.349908
Ni 10.053268  4.462978  6.306506
Ni 10.052189  6.256731  4.509439
Ni 11.845308  6.290027  6.290643
Ni 13.657338  4.499405  6.298340
Ni 13.687840  6.283054  4.499165
Ni  8.185048 10.002113  6.205692
Ni 10.030858  8.093442  6.307114
Ni 10.063172  9.894788  4.520121
Ni 11.869906  9.871882  6.323481
Ni 13.688490  8.081588  6.313818
Ni 13.690484  9.887755  4.526433
Ni  8.251994 13.526321  6.357251
Ni 10.094401 11.708758  6.345657
Ni 10.120472 13.535542  4.513347
Ni 11.892888 13.491339  6.330831
Ni 13.698000 11.687628  6.331279
Ni 13.644772 13.510207  4.470955
Ni  8.254708  2.560077  6.320867
Ni 10.098984  0.836876  6.325469
Ni 10.061102  2.652791  4.513155
Ni 11.861575  2.692028  6.312694
Ni 13.601073  0.885289  6.337986
Ni 13.630916  2.678791  4.460453
Ni  8.191744  6.271011  9.838065
Ni 10.040481  4.484188  9.936993
Ni 10.040700  6.282256  8.113507
Ni 11.852118  6.288289  9.941926
Ni 13.626782  4.453038  9.942992
Ni 13.624805  6.276434  8.081932
Ni  8.194510  9.887947  9.945883
Ni 10.015714  8.082108  9.929933
Ni 10.048713  9.905016  8.116817
Ni 11.832662  9.869673  9.943225
Ni 13.647130  8.101644  9.943145
Ni 13.671974  9.843601  8.139048
Ni  8.254017 13.507707  9.961042
Ni 10.054811 11.677503  9.971781
Ni 10.084398 13.490836  8.151474
Ni 11.855020 13.491352  9.971261
Ni 13.633170 11.663891 10.011312
Ni 13.658249 13.526308  8.166355
Ni  8.259314  2.654613  9.941582
Ni 10.087137  0.847390  9.987155
Ni 10.087326  2.649830  8.129216
Ni 11.835955  2.673786  9.957267
Ni 13.623536  0.870963  9.933899
Ni 13.630311  2.679159  8.148401
Ni  8.229952  6.287449 13.603491
Ni 10.021757  4.484003 13.576332
Ni 10.016421  6.294104 11.746875
Ni 11.824115  6.279195 13.595023
Ni 13.646211  4.487864 13.577053
Ni 13.624887  6.284056 11.793068
Ni  8.221176  9.860478 13.588923
Ni 10.026570  8.080618 13.585377
Ni 10.019098  9.862716 11.760393
Ni 11.855401  9.868214 13.572962
Ni 13.657986  8.065527 13.576627
Ni 13.650636  9.853550 11.747772
Ni  8.232606 13.516358 13.553656
Ni 10.052771 11.676877 13.552016
Ni 10.048668 13.497492 11.767378
Ni 11.843094 13.501079 13.567644
Ni 13.671326 11.698300 13.540371
Ni 13.637013 13.474292 11.761019
Ni  8.217447  2.675183 13.561832
Ni 10.036803  0.858994 13.558747
Ni 10.041057  2.674072 11.764091
Ni 11.839643  2.682283 13.576940
Ni 13.636094  0.850271 13.582965
Ni 13.599858  2.711491 11.765852
Ni  1.053051  6.289039  2.721683
Ni  2.806228  4.452056  2.729129
Ni  0.960897  4.496252  0.900431
Ni  4.565907  6.263410  2.769954
Ni  6.373113  4.445019  2.754561
Ni  4.599680  8.040563  0.934863
Ni  4.642222  4.428097  0.927350
Ni  0.999075  8.055350  0.921275
Ni  0.968031  9.905499  2.709221
Ni  4.615135  9.905431  2.669746
Ni  6.373474  8.038986  2.755148
Ni  6.438062  9.913013  0.966205
Ni  2.765950  9.902965  0.897299
Ni  0.936974 13.478420  2.698060
Ni  4.548874 11.749993  0.907466
Ni  2.755715 13.529819  0.851734
Ni  4.563645 13.599537  2.688345
Ni  4.611211 11.752088  4.477641
Ni  6.437064 13.539043  0.907570
Ni  0.971814  2.680189  2.683964
Ni  4.569701  0.909285  0.906056
Ni  0.989108  0.857385  0.840710
Ni  4.582019  2.616633  2.710389
Ni  6.417562  0.832154  2.686447
Ni  6.422230  2.650492  0.957065
Ni  2.786664  0.903435 13.476789
Ni  0.981927  6.249216  6.292431
Ni  2.784428  4.326340  6.333394
Ni  0.976110  4.462135  4.483238
Ni  6.417144  4.343978  6.316890
Ni  6.335670  6.242539  4.600732
Ni  4.606088  4.385750  4.542764
Ni  1.036611  9.938462  6.359012
Ni  2.782476  8.092802  6.277302
Ni  2.807462  9.911650  4.510706
Ni  1.022092  8.086003  4.517147
Ni  4.585646  9.867999  6.327326
Ni  6.426634  8.128448  6.312765
Ni  4.535723  8.029563  4.549494
Ni  0.920797  0.883897  4.477442
Ni  0.976743 11.702536  4.530337
Ni  4.547210 13.589177  6.348835
Ni  6.414657 13.553389  4.527004
Ni  2.746280 13.542189  4.518690
Ni  2.733154  0.919116  6.377662
Ni  2.781253  2.634388  4.471082
Ni  4.611943  2.625138  6.324721
Ni  6.405117  2.553907  4.529312
Ni  0.961361  4.469652  8.113126
Ni  6.444428  4.443738  9.889633
Ni  4.622294  4.437855  8.104799
Ni  1.012225  9.810029  9.968768
Ni  0.984687  8.017959  8.117674
Ni  2.868250  7.888827 10.019990
Ni  6.363113  8.045718  9.889799
Ni  6.434836  9.936548  8.080075
Ni  4.609876  8.070851  8.081821
Ni  0.953538 13.523728  9.974627
Ni  2.776080 11.625615  9.911828
Ni  2.689544 13.482979  8.098720
Ni  4.589659 13.492265  9.922520
Ni  6.421404 11.736228  9.956508
Ni  6.405218 13.510115  8.181242
Ni  4.507479 11.704620  8.161241
Ni  0.939629  2.711059  9.960841
Ni  2.752297  0.831973 10.016953
Ni  0.964817  0.903740  8.201293
Ni  4.643632  2.673831  9.947855
Ni  6.400879  0.845352  9.945893
Ni  6.419000  2.613060  8.148524
Ni  4.553884  0.830802  8.197508
Ni  0.938763  6.274730 13.594621
Ni  2.819185  4.361303 13.554421
Ni  2.769776  4.643485  9.912645
Ni  0.936602  4.484225 11.760683
Ni  4.651250  6.218939 13.576137
Ni  6.441490  4.497014 13.568930
Ni  6.450805  6.260366 11.757663
Ni  4.657062  4.456957 11.747491
Ni  0.978280 11.711244  0.883337
Ni  2.826766  8.085025 13.562263
Ni  2.892709  9.855576 11.711832
Ni  0.998947  8.046079 11.758208
Ni  6.389931  6.256494  0.944837
Ni  6.389745  9.877737 11.797478
Ni  6.408999  8.066529 13.627355
Ni  0.991195 13.508742 13.514391
Ni  2.778216 11.727964 13.542742
Ni  0.986925 11.649148 11.720188
Ni  6.432938 11.702313 13.584240
Ni  6.410758 13.507569 11.731838
Ni  4.635174 11.742758 11.771984
Ni  0.944122  2.676850 13.529098
Ni  4.624715  0.842416 11.724566
Ni  6.440697  0.856009 13.546502
Ni  6.460644  2.665706 11.707566
%ENDBLOCK POSITIONS_ABS

