%block lattice_abc 
  14.46482773 14.46482773 14.46482773 #lattice params 
 90.0  90.0  90.0 
     %endblock lattice_abc 
     fix_all_cell : true 
     %BLOCK POSITIONS_ABS 
Al  8.230435  4.448567  0.927380
 Al 11.848706  4.462046  0.915440
 Al  8.226961  8.095867  0.967373
 Al 11.858185  8.086337  0.927511
 Al  8.311804 11.698103  0.851027
 Al 11.883207 11.687971  0.900139
 Al  8.250877  0.853815  0.918949
 Al 11.862280  0.853182  0.899226
 Al  8.225377  4.430302  4.517169
 Al 11.848880  4.473536  4.517876
 Al  8.288751  8.001763  4.497430
 Al 11.855134  8.074492  4.527296
 Al  8.399243 11.803797  4.538329
 Al 11.874700 11.681911  4.531005
 Al  8.305538  0.823804  4.457007
 Al 11.884634  0.863277  4.513625
 Al  8.181031  4.472104  8.129630
 Al 11.826998  4.488411  8.137556
 Al  8.166236  8.058536  8.129664
 Al 11.820442  8.070260  8.128684
 Al  8.300922 11.706518  8.202219
 Al 11.891271 11.670938  8.149677
 Al  8.350540  0.831625  8.243044
 Al 11.837746  0.852827  8.152270
 Al  8.259165  4.460110 11.781239
 Al 11.807452  4.485978 11.761688
 Al  8.209069  8.081075 11.788817
 Al 11.826793  8.080401 11.762333
 Al  8.234086 11.693345 11.779832
 Al 11.841140 11.668268 11.777716
 Al  8.252578  0.845036 11.755075
 Al 11.879224  0.842955 11.775120
 Al  4.764697  2.654101 13.542753
 Al  0.824987  0.870775 11.741633
 Al  2.804252  2.758694 11.633866
 Al  4.663663 13.541142 13.633735
 Al  2.780940 13.411065 11.669634
 Al  4.608801  9.988451 13.690276
 Al  0.988522  9.875559 13.548812
 Al  2.857359  2.700194  8.265780
 Al  0.868605 11.665207  8.273088
 Al  4.729192  9.970357  9.962855
 Al  2.792407  9.652914  8.154784
 Al  4.927685  6.195168  9.778872
 Al  4.713096  8.026824 11.866122
 Al  2.769356  6.273874  8.038074
 Al  0.821085  6.267855  9.957583
 Al  4.545988  0.852565  4.525344
 Al  6.374307  0.843402  6.444805
 Al  2.640647  0.784575  2.691699
 Al  0.915400  2.673733  6.278816
 Al  6.249880 11.797416  6.380886
 Al  0.898880 13.641378  6.286626
 Al  2.888538 11.700182  6.237561
 Al  6.236717  9.790532  4.485251
 Al  4.887090  6.225713  6.370259
 Al  2.727224  6.151783  4.527425
 Al  2.697794  2.716216  0.877202
 Al  6.288040 11.821450  2.654001
 Al  2.763048 11.713966  2.709632
 Al  2.800536  6.177397  0.822029
 Al  2.760804  6.169296 11.927588
 Al  2.767010  8.196248  2.689132
 Ni  8.215303  6.242726  2.703056
 Ni 10.047068  4.455271  2.722926
 Ni 10.046970  6.275667  0.938902
 Ni 11.860992  6.275304  2.724383
 Ni 13.662074  4.478128  2.703021
 Ni 13.640598  6.289447  0.913675
 Ni  8.176082  9.976630  2.826780
 Ni 10.044196  8.086005  2.729078
 Ni 10.052369  9.880969  0.938865
 Ni 11.867130  9.878047  2.733498
 Ni 13.685832  8.076588  2.726877
 Ni 13.674728  9.885257  0.923897
 Ni  8.250802 13.462962  2.709153
 Ni 10.081491 11.694032  2.706256
 Ni 10.055471 13.507643  0.903875
 Ni 11.870741 13.507311  2.692857
 Ni 13.658080 11.687265  2.719141
 Ni 13.672391 13.494526  0.890371
 Ni  8.229968  2.650450  2.729076
 Ni 10.077269  0.847683  2.701378
 Ni 10.041141  2.656503  0.910286
 Ni 11.855658  2.662419  2.694087
 Ni 13.683145  0.857166  2.686565
 Ni 13.668149  2.661481  0.899342
 Ni  8.162855  6.245895  6.324923
 Ni 10.014760  4.466208  6.332247
 Ni 10.041130  6.249128  4.518887
 Ni 11.823631  6.284570  6.312348
 Ni 13.649558  4.492673  6.320489
 Ni 13.674934  6.276148  4.511259
 Ni  8.170369  9.994786  6.224931
 Ni  9.988037  8.081417  6.330530
 Ni 10.054470  9.887116  4.531111
 Ni 11.849872  9.860137  6.337066
 Ni 13.674283  8.076014  6.323452
 Ni 13.685195  9.882217  4.541614
 Ni  8.239342 13.524176  6.362795
 Ni 10.081081 11.700441  6.355255
 Ni 10.112226 13.532489  4.528088
 Ni 11.889825 13.486548  6.343239
 Ni 13.704786 11.673863  6.340496
 Ni 13.653173 13.506787  4.495415
 Ni  8.245361  2.566345  6.343004
 Ni 10.086835  0.833445  6.336134
 Ni 10.056788  2.650454  4.529796
 Ni 11.849807  2.692226  6.336412
 Ni 13.609461  0.887028  6.357171
 Ni 13.625083  2.671043  4.482416
 Ni  8.167414  6.264984  9.935595
 Ni 10.017855  4.479625  9.940521
 Ni  9.979186  6.275829  8.130002
 Ni 11.838150  6.285199  9.944935
 Ni 13.622972  4.445779  9.947581
 Ni 13.614948  6.272389  8.096343
 Ni  8.203814  9.889262  9.957320
 Ni  9.993348  8.074793  9.939436
 Ni 10.005294  9.874842  8.123857
 Ni 11.816501  9.866875  9.942702
 Ni 13.635558  8.104002  9.947982
 Ni 13.663068  9.840505  8.143916
 Ni  8.260078 13.504218  9.970752
 Ni 10.054489 11.678797  9.972615
 Ni 10.078245 13.487069  8.152559
 Ni 11.855473 13.485712  9.964948
 Ni 13.631290 11.654428 10.002126
 Ni 13.665521 13.520271  8.167098
 Ni  8.268552  2.646368  9.948002
 Ni 10.087587  0.840007  9.989166
 Ni 10.050892  2.668914  8.137942
 Ni 11.826405  2.667796  9.954060
 Ni 13.632654  0.872361  9.924720
 Ni 13.635825  2.677337  8.157838
 Ni  8.238621  6.280989 13.618952
 Ni 10.033707  4.467647 13.590038
 Ni 10.017065  6.288060 11.763005
 Ni 11.818342  6.273191 13.588682
 Ni 13.643169  4.480328 13.569961
 Ni 13.612236  6.282911 11.799546
 Ni  8.228684  9.873331 13.604283
 Ni 10.035837  8.084334 13.596957
 Ni 10.021880  9.869602 11.769668
 Ni 11.858394  9.874085 13.574587
 Ni 13.650335  8.066748 13.571995
 Ni 13.650016  9.854891 11.742809
 Ni  8.242241 13.516152 13.559345
 Ni 10.060681 11.681496 13.564530
 Ni 10.058985 13.495717 11.772840
 Ni 11.847900 13.499596 13.571310
 Ni 13.671746 11.701679 13.541441
 Ni 13.642383 13.470437 11.751382
 Ni  8.228949  2.654314 13.580244
 Ni 10.049838  0.850856 13.569187
 Ni 10.046069  2.659087 11.772605
 Ni 11.846428  2.669137 13.575899
 Ni 13.636888  0.842175 13.581407
 Ni 13.602663  2.704057 11.757928
 Ni  1.011408  6.282495  2.694904
 Ni  2.786858  4.436257  2.703794
 Ni  0.947377  4.488296  0.886085
 Ni  4.551597  6.254910  2.713985
 Ni  6.378412  4.430334  2.725911
 Ni  4.592877  8.042354  0.925615
 Ni  4.635156  4.411292  0.917601
 Ni  0.980336  8.053859  0.911840
 Ni  0.955966  9.902985  2.714582
 Ni  4.605402  9.900556  2.661551
 Ni  6.376921  8.047106  2.717016
 Ni  6.431264  9.922064  0.959949
 Ni  2.751713  9.911344  0.887767
 Ni  0.941520 13.476842  2.718189
 Ni  4.537374 11.753321  0.911273
 Ni  2.748750 13.529658  0.860842
 Ni  4.557433 13.598028  2.697802
 Ni  4.611271 11.737988  4.478890
 Ni  6.433735 13.539712  0.915944
 Ni  0.969936  2.674657  2.693401
 Ni  4.563805  0.903124  0.903506
 Ni  0.986563  0.849459  0.847075
 Ni  4.572073  2.611255  2.709329
 Ni  6.413282  0.828321  2.692000
 Ni  6.421674  2.634528  0.955417
 Ni  2.779233  0.891624 13.472282
 Ni  0.956557  6.244156  6.307531
 Ni  2.825161  4.431982  6.341494
 Ni  0.952042  4.446599  4.493158
 Ni  6.438854  4.337312  6.301622
 Ni  6.406299  6.244217  4.472874
 Ni  4.605878  4.424412  4.517670
 Ni  1.054203  9.906222  6.369552
 Ni  2.823216  7.988265  6.284933
 Ni  2.808788  9.887228  4.522263
 Ni  1.015957  8.080713  4.522978
 Ni  4.585468  9.843051  6.323828
 Ni  6.453863  8.118715  6.298349
 Ni  4.530234  7.999321  4.503144
 Ni  0.930818  0.891688  4.499601
 Ni  0.979351 11.688081  4.547612
 Ni  4.553793 13.584360  6.357718
 Ni  6.406693 13.548465  4.536958
 Ni  2.752370 13.539043  4.535109
 Ni  2.750143  0.926286  6.392300
 Ni  2.784159  2.660958  4.489625
 Ni  4.613616  2.643312  6.323296
 Ni  6.406356  2.559006  4.521405
 Ni  0.967853  4.465891  8.131369
 Ni  6.468830  4.367325  9.978428
 Ni  4.685353  4.449642  8.117885
 Ni  1.022754  9.797263  9.965066
 Ni  0.963663  8.016353  8.130711
 Ni  2.901675  7.872916 10.041486
 Ni  6.393917  8.127359  9.982815
 Ni  6.444782  9.913585  8.096215
 Ni  4.690747  8.048032  8.108475
 Ni  0.959660 13.515159  9.965906
 Ni  2.782550 11.613655  9.905679
 Ni  2.698255 13.475433  8.096905
 Ni  4.595010 13.482138  9.917901
 Ni  6.432023 11.733313  9.963533
 Ni  6.410408 13.504749  8.183071
 Ni  4.517393 11.686071  8.160170
 Ni  0.960384  2.715102  9.962055
 Ni  2.760354  0.830848 10.010818
 Ni  0.980433  0.911372  8.204892
 Ni  4.654828  2.661393  9.966821
 Ni  6.410136  0.839531  9.953613
 Ni  6.426578  2.626596  8.160288
 Ni  4.566644  0.835669  8.201970
 Ni  0.939868  6.274522 13.584308
 Ni  2.820289  4.351519 13.546679
 Ni  2.825068  4.677768  9.933536
 Ni  0.942903  4.481064 11.762148
 Ni  4.650569  6.212836 13.583419
 Ni  6.445487  4.486440 13.577558
 Ni  6.457203  6.255568 11.783250
 Ni  4.673124  4.466211 11.745177
 Ni  0.971026 11.716259  0.890397
 Ni  2.827655  8.085189 13.559201
 Ni  2.893583  9.859558 11.723130
 Ni  1.002578  8.047872 11.761853
 Ni  6.394059  6.249820  0.938028
 Ni  6.395101  9.902618 11.834549
 Ni  6.412089  8.067282 13.638588
 Ni  0.988262 13.507267 13.512670
 Ni  2.768349 11.731194 13.544420
 Ni  0.986312 11.641397 11.711566
 Ni  6.433228 11.716373 13.598187
 Ni  6.420051 13.506275 11.735425
 Ni  4.638955 11.749508 11.777110
 Ni  0.941581  2.665505 13.521168
 Ni  4.632070  0.827771 11.730708
 Ni  6.447137  0.839861 13.557456
 Ni  6.472218  2.633550 11.738993
 %ENDBLOCK POSITIONS_ABS
 
%block positions_abs_product 
     ang 
Al  8.216606  4.465060  0.929378
 Al 11.843184  4.478670  0.912324
 Al  8.214559  8.089005  0.972703
 Al 11.855824  8.084296  0.925050
 Al  8.305708 11.689108  0.840914
 Al 11.878086 11.683934  0.888616
 Al  8.244226  0.864124  0.906559
 Al 11.856981  0.861332  0.885353
 Al  8.216982  4.443405  4.538084
 Al 11.861608  4.477445  4.494091
 Al  8.276509  8.001308  4.521282
 Al 11.872950  8.084228  4.512023
 Al  8.408548 11.813466  4.527508
 Al 11.880786 11.685675  4.514235
 Al  8.311964  0.820298  4.445892
 Al 11.887240  0.867672  4.489061
 Al  8.299734  4.371782  8.101435
 Al 11.846763  4.488434  8.124663
 Al  8.270782  8.172293  8.090342
 Al 11.845511  8.079574  8.119390
 Al  8.302847 11.705965  8.195984
 Al 11.905202 11.682937  8.149758
 Al  8.353417  0.838984  8.236431
 Al 11.854108  0.850177  8.149837
 Al  8.242612  4.484275 11.742387
 Al 11.819291  4.497833 11.767573
 Al  8.195287  8.068857 11.746481
 Al 11.838060  8.076033 11.764241
 Al  8.224050 11.689532 11.770713
 Al 11.842157 11.667947 11.778914
 Al  8.237020  0.852820 11.748422
 Al 11.870723  0.852707 11.781437
 Al  4.769620  2.660711 13.545017
 Al  0.824502  0.876082 11.751477
 Al  2.795406  2.760280 11.632342
 Al  4.671671 13.545118 13.630915
 Al  2.781764 13.418925 11.676635
 Al  4.612683  9.981306 13.689103
 Al  1.001011  9.874817 13.545641
 Al  2.822829  2.659535  8.257776
 Al  0.857963 11.687198  8.275496
 Al  4.736220  9.957159  9.937531
 Al  2.762147  9.708643  8.161070
 Al  4.708036  6.165779  9.923669
 Al  4.702166  8.042261 11.864442
 Al  2.876454  6.254391  7.880011
 Al  0.839893  6.272434  9.918051
 Al  4.549564  0.845825  4.514490
 Al  6.378231  0.834317  6.439865
 Al  2.643591  0.782766  2.676393
 Al  0.892915  2.657140  6.261220
 Al  6.254532 11.816124  6.381074
 Al  0.887098 13.647011  6.274290
 Al  2.880794 11.716161  6.228975
 Al  6.246298  9.812556  4.491985
 Al  6.289234  6.240128  7.842273
 Al  2.844688  6.156517  4.645485
 Al  2.711404  2.732593  0.888987
 Al  6.292741 11.826033  2.649455
 Al  2.766679 11.725428  2.696323
 Al  2.815304  6.181754  0.834293
 Al  2.732881  6.172831 11.933119
 Al  2.793446  8.183184  2.715024
 Ni  8.181909  6.247291  2.744909
 Ni 10.034961  4.464428  2.719536
 Ni 10.024713  6.284262  0.944110
 Ni 11.866961  6.282859  2.715568
 Ni 13.674269  4.487921  2.696049
 Ni 13.658253  6.293089  0.925806
 Ni  8.176379  9.973330  2.828706
 Ni 10.032680  8.088755  2.731118
 Ni 10.041670  9.874241  0.930174
 Ni 11.870423  9.879302  2.720098
 Ni 13.697225  8.081059  2.720513
 Ni 13.681262  9.880301  0.916045
 Ni  8.252943 13.466163  2.696683
 Ni 10.079678 11.696124  2.689409
 Ni 10.045854 13.507228  0.890032
 Ni 11.868835 13.508333  2.670945
 Ni 13.660327 11.687388  2.698911
 Ni 13.671244 13.496730  0.877185
 Ni  8.225294  2.659228  2.732045
 Ni 10.074778  0.853256  2.681677
 Ni 10.027233  2.670660  0.900883
 Ni 11.856250  2.673039  2.678653
 Ni 13.676421  0.860863  2.665355
 Ni 13.667188  2.672888  0.893930
 Ni  8.223512  6.252280  6.349908
 Ni 10.053268  4.462978  6.306506
 Ni 10.052189  6.256731  4.509439
 Ni 11.845308  6.290027  6.290643
 Ni 13.657338  4.499405  6.298340
 Ni 13.687840  6.283054  4.499165
 Ni  8.185048 10.002113  6.205692
 Ni 10.030858  8.093442  6.307114
 Ni 10.063172  9.894788  4.520121
 Ni 11.869906  9.871882  6.323481
 Ni 13.688490  8.081588  6.313818
 Ni 13.690484  9.887755  4.526433
 Ni  8.251994 13.526321  6.357251
 Ni 10.094401 11.708758  6.345657
 Ni 10.120472 13.535542  4.513347
 Ni 11.892888 13.491339  6.330831
 Ni 13.698000 11.687628  6.331279
 Ni 13.644772 13.510207  4.470955
 Ni  8.254708  2.560077  6.320867
 Ni 10.098984  0.836876  6.325469
 Ni 10.061102  2.652791  4.513155
 Ni 11.861575  2.692028  6.312694
 Ni 13.601073  0.885289  6.337986
 Ni 13.630916  2.678791  4.460453
 Ni  8.191744  6.271011  9.838065
 Ni 10.040481  4.484188  9.936993
 Ni 10.040700  6.282256  8.113507
 Ni 11.852118  6.288289  9.941926
 Ni 13.626782  4.453038  9.942992
 Ni 13.624805  6.276434  8.081932
 Ni  8.194510  9.887947  9.945883
 Ni 10.015714  8.082108  9.929933
 Ni 10.048713  9.905016  8.116817
 Ni 11.832662  9.869673  9.943225
 Ni 13.647130  8.101644  9.943145
 Ni 13.671974  9.843601  8.139048
 Ni  8.254017 13.507707  9.961042
 Ni 10.054811 11.677503  9.971781
 Ni 10.084398 13.490836  8.151474
 Ni 11.855020 13.491352  9.971261
 Ni 13.633170 11.663891 10.011312
 Ni 13.658249 13.526308  8.166355
 Ni  8.259314  2.654613  9.941582
 Ni 10.087137  0.847390  9.987155
 Ni 10.087326  2.649830  8.129216
 Ni 11.835955  2.673786  9.957267
 Ni 13.623536  0.870963  9.933899
 Ni 13.630311  2.679159  8.148401
 Ni  8.229952  6.287449 13.603491
 Ni 10.021757  4.484003 13.576332
 Ni 10.016421  6.294104 11.746875
 Ni 11.824115  6.279195 13.595023
 Ni 13.646211  4.487864 13.577053
 Ni 13.624887  6.284056 11.793068
 Ni  8.221176  9.860478 13.588923
 Ni 10.026570  8.080618 13.585377
 Ni 10.019098  9.862716 11.760393
 Ni 11.855401  9.868214 13.572962
 Ni 13.657986  8.065527 13.576627
 Ni 13.650636  9.853550 11.747772
 Ni  8.232606 13.516358 13.553656
 Ni 10.052771 11.676877 13.552016
 Ni 10.048668 13.497492 11.767378
 Ni 11.843094 13.501079 13.567644
 Ni 13.671326 11.698300 13.540371
 Ni 13.637013 13.474292 11.761019
 Ni  8.217447  2.675183 13.561832
 Ni 10.036803  0.858994 13.558747
 Ni 10.041057  2.674072 11.764091
 Ni 11.839643  2.682283 13.576940
 Ni 13.636094  0.850271 13.582965
 Ni 13.599858  2.711491 11.765852
 Ni  1.053051  6.289039  2.721683
 Ni  2.806228  4.452056  2.729129
 Ni  0.960897  4.496252  0.900431
 Ni  4.565907  6.263410  2.769954
 Ni  6.373113  4.445019  2.754561
 Ni  4.599680  8.040563  0.934863
 Ni  4.642222  4.428097  0.927350
 Ni  0.999075  8.055350  0.921275
 Ni  0.968031  9.905499  2.709221
 Ni  4.615135  9.905431  2.669746
 Ni  6.373474  8.038986  2.755148
 Ni  6.438062  9.913013  0.966205
 Ni  2.765950  9.902965  0.897299
 Ni  0.936974 13.478420  2.698060
 Ni  4.548874 11.749993  0.907466
 Ni  2.755715 13.529819  0.851734
 Ni  4.563645 13.599537  2.688345
 Ni  4.611211 11.752088  4.477641
 Ni  6.437064 13.539043  0.907570
 Ni  0.971814  2.680189  2.683964
 Ni  4.569701  0.909285  0.906056
 Ni  0.989108  0.857385  0.840710
 Ni  4.582019  2.616633  2.710389
 Ni  6.417562  0.832154  2.686447
 Ni  6.422230  2.650492  0.957065
 Ni  2.786664  0.903435 13.476789
 Ni  0.981927  6.249216  6.292431
 Ni  2.784428  4.326340  6.333394
 Ni  0.976110  4.462135  4.483238
 Ni  6.417144  4.343978  6.316890
 Ni  6.335670  6.242539  4.600732
 Ni  4.606088  4.385750  4.542764
 Ni  1.036611  9.938462  6.359012
 Ni  2.782476  8.092802  6.277302
 Ni  2.807462  9.911650  4.510706
 Ni  1.022092  8.086003  4.517147
 Ni  4.585646  9.867999  6.327326
 Ni  6.426634  8.128448  6.312765
 Ni  4.535723  8.029563  4.549494
 Ni  0.920797  0.883897  4.477442
 Ni  0.976743 11.702536  4.530337
 Ni  4.547210 13.589177  6.348835
 Ni  6.414657 13.553389  4.527004
 Ni  2.746280 13.542189  4.518690
 Ni  2.733154  0.919116  6.377662
 Ni  2.781253  2.634388  4.471082
 Ni  4.611943  2.625138  6.324721
 Ni  6.405117  2.553907  4.529312
 Ni  0.961361  4.469652  8.113126
 Ni  6.444428  4.443738  9.889633
 Ni  4.622294  4.437855  8.104799
 Ni  1.012225  9.810029  9.968768
 Ni  0.984687  8.017959  8.117674
 Ni  2.868250  7.888827 10.019990
 Ni  6.363113  8.045718  9.889799
 Ni  6.434836  9.936548  8.080075
 Ni  4.609876  8.070851  8.081821
 Ni  0.953538 13.523728  9.974627
 Ni  2.776080 11.625615  9.911828
 Ni  2.689544 13.482979  8.098720
 Ni  4.589659 13.492265  9.922520
 Ni  6.421404 11.736228  9.956508
 Ni  6.405218 13.510115  8.181242
 Ni  4.507479 11.704620  8.161241
 Ni  0.939629  2.711059  9.960841
 Ni  2.752297  0.831973 10.016953
 Ni  0.964817  0.903740  8.201293
 Ni  4.643632  2.673831  9.947855
 Ni  6.400879  0.845352  9.945893
 Ni  6.419000  2.613060  8.148524
 Ni  4.553884  0.830802  8.197508
 Ni  0.938763  6.274730 13.594621
 Ni  2.819185  4.361303 13.554421
 Ni  2.769776  4.643485  9.912645
 Ni  0.936602  4.484225 11.760683
 Ni  4.651250  6.218939 13.576137
 Ni  6.441490  4.497014 13.568930
 Ni  6.450805  6.260366 11.757663
 Ni  4.657062  4.456957 11.747491
 Ni  0.978280 11.711244  0.883337
 Ni  2.826766  8.085025 13.562263
 Ni  2.892709  9.855576 11.711832
 Ni  0.998947  8.046079 11.758208
 Ni  6.389931  6.256494  0.944837
 Ni  6.389745  9.877737 11.797478
 Ni  6.408999  8.066529 13.627355
 Ni  0.991195 13.508742 13.514391
 Ni  2.778216 11.727964 13.542742
 Ni  0.986925 11.649148 11.720188
 Ni  6.432938 11.702313 13.584240
 Ni  6.410758 13.507569 11.731838
 Ni  4.635174 11.742758 11.771984
 Ni  0.944122  2.676850 13.529098
 Ni  4.624715  0.842416 11.724566
 Ni  6.440697  0.856009 13.546502
 Ni  6.460644  2.665706 11.707566
%endblock positions_abs_product 
%block positions_abs_intermediate 
     ang 
Al  8.223520  4.456813  0.928379
 Al 11.845945  4.470358  0.913882
 Al  8.220760  8.092436  0.970038
 Al 11.857004  8.085317  0.926280
 Al  8.308756 11.693606  0.845970
 Al 11.880646 11.685953  0.894377
 Al  8.247551  0.858970  0.912754
 Al 11.859630  0.857257  0.892290
 Al  8.221180  4.436853  4.527627
 Al 11.855244  4.475490  4.505983
 Al  8.282630  8.001535  4.509356
 Al 11.864042  8.079360  4.519659
 Al  8.403895 11.808632  4.532919
 Al 11.877743 11.683793  4.522620
 Al  8.308751  0.822051  4.451450
 Al 11.885937  0.865474  4.501343
 Al  8.240382  4.421943  8.115532
 Al 11.836880  4.488422  8.131109
 Al  8.218509  8.115415  8.110003
 Al 11.832977  8.074917  8.124037
 Al  8.301885 11.706241  8.199101
 Al 11.898237 11.676938  8.149717
 Al  8.351978  0.835304  8.239737
 Al 11.845927  0.851502  8.151054
 Al  8.250889  4.472192 11.761813
 Al 11.813371  4.491905 11.764631
 Al  8.202178  8.074966 11.767649
 Al 11.832426  8.078217 11.763287
 Al  8.229068 11.691439 11.775273
 Al 11.841649 11.668108 11.778315
 Al  8.244799  0.848928 11.751748
 Al 11.874974  0.847831 11.778279
 Al  4.767159  2.657406 13.543885
 Al  0.824744  0.873429 11.746555
 Al  2.799829  2.759487 11.633104
 Al  4.667667 13.543130 13.632325
 Al  2.781352 13.414995 11.673134
 Al  4.610742  9.984879 13.689690
 Al  0.994767  9.875188 13.547227
 Al  2.840094  2.679865  8.261778
 Al  0.863284 11.676203  8.274292
 Al  4.732706  9.963758  9.950193
 Al  2.777277  9.680778  8.157927
 Al  4.817860  6.180474  9.851271
 Al  4.707631  8.034542 11.865282
 Al  2.822905  6.264133  7.959043
 Al  0.830489  6.270145  9.937817
 Al  4.547776  0.849195  4.519917
 Al  6.376269  0.838860  6.442335
 Al  2.642119  0.783671  2.684046
 Al  0.904157  2.665436  6.270018
 Al  6.252206 11.806770  6.380980
 Al  0.892989 13.644195  6.280458
 Al  2.884666 11.708172  6.233268
 Al  6.241507  9.801544  4.488618
 Al  5.588162  6.232921  7.106266
 Al  2.785956  6.154150  4.586455
 Al  2.704599  2.724404  0.883095
 Al  6.290391 11.823742  2.651728
 Al  2.764863 11.719697  2.702977
 Al  2.807920  6.179575  0.828161
 Al  2.746843  6.171064 11.930353
 Al  2.780228  8.189716  2.702078
 Ni  8.198606  6.245009  2.723982
 Ni 10.041015  4.459849  2.721231
 Ni 10.035841  6.279964  0.941506
 Ni 11.863976  6.279081  2.719975
 Ni 13.668171  4.483024  2.699535
 Ni 13.649425  6.291268  0.919740
 Ni  8.176230  9.974980  2.827743
 Ni 10.038438  8.087380  2.730098
 Ni 10.047020  9.877605  0.934519
 Ni 11.868776  9.878675  2.726798
 Ni 13.691528  8.078823  2.723695
 Ni 13.677995  9.882779  0.919971
 Ni  8.251873 13.464563  2.702918
 Ni 10.080585 11.695078  2.697833
 Ni 10.050663 13.507435  0.896953
 Ni 11.869788 13.507822  2.681901
 Ni 13.659203 11.687326  2.709026
 Ni 13.671817 13.495628  0.883778
 Ni  8.227631  2.654839  2.730560
 Ni 10.076024  0.850469  2.691528
 Ni 10.034187  2.663581  0.905585
 Ni 11.855954  2.667729  2.686370
 Ni 13.679783  0.859014  2.675960
 Ni 13.667669  2.667185  0.896636
 Ni  8.193184  6.249088  6.337415
 Ni 10.034014  4.464593  6.319376
 Ni 10.046659  6.252929  4.514163
 Ni 11.834469  6.287299  6.301495
 Ni 13.653448  4.496039  6.309415
 Ni 13.681387  6.279601  4.505212
 Ni  8.177708  9.998449  6.215312
 Ni 10.009447  8.087430  6.318822
 Ni 10.058821  9.890952  4.525616
 Ni 11.859889  9.866010  6.330274
 Ni 13.681386  8.078801  6.318635
 Ni 13.687839  9.884986  4.534024
 Ni  8.245668 13.525248  6.360023
 Ni 10.087741 11.704600  6.350456
 Ni 10.116349 13.534016  4.520717
 Ni 11.891356 13.488944  6.337035
 Ni 13.701393 11.680745  6.335888
 Ni 13.648973 13.508497  4.483185
 Ni  8.250034  2.563211  6.331936
 Ni 10.092910  0.835161  6.330802
 Ni 10.058945  2.651623  4.521475
 Ni 11.855691  2.692127  6.324553
 Ni 13.605267  0.886158  6.347578
 Ni 13.628000  2.674917  4.471435
 Ni  8.179579  6.267997  9.886830
 Ni 10.029168  4.481907  9.938757
 Ni 10.009943  6.279043  8.121754
 Ni 11.845134  6.286744  9.943430
 Ni 13.624877  4.449408  9.945287
 Ni 13.619876  6.274411  8.089137
 Ni  8.199162  9.888604  9.951601
 Ni 10.004531  8.078450  9.934684
 Ni 10.027003  9.889929  8.120337
 Ni 11.824581  9.868274  9.942963
 Ni 13.641344  8.102823  9.945564
 Ni 13.667521  9.842053  8.141482
 Ni  8.257047 13.505962  9.965897
 Ni 10.054650 11.678150  9.972198
 Ni 10.081321 13.488953  8.152016
 Ni 11.855247 13.488532  9.968105
 Ni 13.632230 11.659159 10.006719
 Ni 13.661885 13.523290  8.166727
 Ni  8.263933  2.650490  9.944792
 Ni 10.087362  0.843698  9.988160
 Ni 10.069109  2.659372  8.133579
 Ni 11.831180  2.670791  9.955664
 Ni 13.628095  0.871662  9.929309
 Ni 13.633068  2.678248  8.153119
 Ni  8.234287  6.284219 13.611221
 Ni 10.027732  4.475825 13.583185
 Ni 10.016743  6.291082 11.754940
 Ni 11.821229  6.276193 13.591853
 Ni 13.644690  4.484096 13.573507
 Ni 13.618561  6.283484 11.796307
 Ni  8.224930  9.866905 13.596603
 Ni 10.031203  8.082476 13.591167
 Ni 10.020489  9.866159 11.765031
 Ni 11.856897  9.871149 13.573774
 Ni 13.654161  8.066138 13.574311
 Ni 13.650326  9.854221 11.745291
 Ni  8.237424 13.516255 13.556500
 Ni 10.056726 11.679187 13.558273
 Ni 10.053827 13.496605 11.770109
 Ni 11.845497 13.500337 13.569477
 Ni 13.671536 11.699989 13.540906
 Ni 13.639698 13.472365 11.756200
 Ni  8.223198  2.664748 13.571038
 Ni 10.043320  0.854925 13.563967
 Ni 10.043563  2.666579 11.768348
 Ni 11.843035  2.675710 13.576419
 Ni 13.636491  0.846223 13.582186
 Ni 13.601260  2.707774 11.761890
 Ni  1.032230  6.285767  2.708293
 Ni  2.796543  4.444156  2.716461
 Ni  0.954137  4.492274  0.893258
 Ni  4.558752  6.259160  2.741970
 Ni  6.375762  4.437676  2.740236
 Ni  4.596278  8.041458  0.930239
 Ni  4.638689  4.419695  0.922476
 Ni  0.989706  8.054604  0.916557
 Ni  0.961999  9.904242  2.711901
 Ni  4.610268  9.902993  2.665649
 Ni  6.375198  8.043046  2.736082
 Ni  6.434663  9.917539  0.963077
 Ni  2.758832  9.907154  0.892533
 Ni  0.939247 13.477631  2.708125
 Ni  4.543124 11.751657  0.909370
 Ni  2.752232 13.529739  0.856288
 Ni  4.560539 13.598783  2.693074
 Ni  4.611241 11.745038  4.478265
 Ni  6.435400 13.539377  0.911757
 Ni  0.970875  2.677423  2.688682
 Ni  4.566753  0.906205  0.904781
 Ni  0.987835  0.853422  0.843893
 Ni  4.577046  2.613944  2.709859
 Ni  6.415422  0.830237  2.689224
 Ni  6.421952  2.642510  0.956241
 Ni  2.782948  0.897530 13.474535
 Ni  0.969242  6.246686  6.299981
 Ni  2.804794  4.379161  6.337444
 Ni  0.964076  4.454367  4.488198
 Ni  6.427999  4.340645  6.309256
 Ni  6.370984  6.243378  4.536803
 Ni  4.605983  4.405081  4.530217
 Ni  1.045407  9.922342  6.364282
 Ni  2.802846  8.040534  6.281117
 Ni  2.808125  9.899439  4.516485
 Ni  1.019025  8.083358  4.520062
 Ni  4.585557  9.855525  6.325577
 Ni  6.440249  8.123581  6.305557
 Ni  4.532979  8.014442  4.526319
 Ni  0.925807  0.887793  4.488522
 Ni  0.978047 11.695308  4.538974
 Ni  4.550502 13.586768  6.353276
 Ni  6.410675 13.550927  4.531981
 Ni  2.749325 13.540616  4.526899
 Ni  2.741648  0.922701  6.384981
 Ni  2.782706  2.647673  4.480354
 Ni  4.612779  2.634225  6.324008
 Ni  6.405737  2.556456  4.525358
 Ni  0.964607  4.467771  8.122248
 Ni  6.456629  4.405532  9.934031
 Ni  4.653824  4.443748  8.111342
 Ni  1.017489  9.803646  9.966917
 Ni  0.974175  8.017156  8.124192
 Ni  2.884962  7.880871 10.030738
 Ni  6.378515  8.086538  9.936307
 Ni  6.439809  9.925066  8.088145
 Ni  4.650312  8.059442  8.095148
 Ni  0.956599 13.519443  9.970267
 Ni  2.779315 11.619635  9.908754
 Ni  2.693900 13.479206  8.097812
 Ni  4.592335 13.487202  9.920211
 Ni  6.426714 11.734770  9.960021
 Ni  6.407813 13.507432  8.182156
 Ni  4.512436 11.695345  8.160705
 Ni  0.950006  2.713080  9.961448
 Ni  2.756325  0.831410 10.013885
 Ni  0.972625  0.907556  8.203093
 Ni  4.649230  2.667612  9.957338
 Ni  6.405507  0.842442  9.949753
 Ni  6.422789  2.619828  8.154406
 Ni  4.560264  0.833236  8.199739
 Ni  0.939316  6.274626 13.589465
 Ni  2.819737  4.356411 13.550550
 Ni  2.797422  4.660627  9.923090
 Ni  0.939753  4.482645 11.761416
 Ni  4.650909  6.215887 13.579778
 Ni  6.443489  4.491727 13.573244
 Ni  6.454004  6.257967 11.770457
 Ni  4.665093  4.461584 11.746334
 Ni  0.974653 11.713751  0.886867
 Ni  2.827210  8.085107 13.560732
 Ni  2.893146  9.857567 11.717481
 Ni  1.000762  8.046975 11.760031
 Ni  6.391995  6.253157  0.941432
 Ni  6.392423  9.890177 11.816013
 Ni  6.410544  8.066905 13.632972
 Ni  0.989728 13.508005 13.513530
 Ni  2.773283 11.729579 13.543581
 Ni  0.986619 11.645272 11.715877
 Ni  6.433083 11.709343 13.591213
 Ni  6.415404 13.506922 11.733632
 Ni  4.637064 11.746133 11.774547
 Ni  0.942851  2.671177 13.525133
 Ni  4.628392  0.835093 11.727637
 Ni  6.443917  0.847935 13.551979
 Ni  6.466431  2.649628 11.723280
%endblock positions_abs_intermediate 
     kpoint_mp_grid 1 1 1 
     fix_com : false