#######################################################
#CASTEP cell file: /home/u2093113/Documents/kART/barriers/CASTEP/castep.cell
#Created using the Atomic Simulation Environment (ASE)#
#######################################################

%BLOCK LATTICE_CART
14.464828  0.000000  0.000000
 0.000000 14.464828  0.000000
 0.000000  0.000000 14.464828
%ENDBLOCK LATTICE_CART

%BLOCK POSITIONS_ABS
Ni  8.205661  6.264905  9.922074
Ni 10.029262  4.460574  9.931930
Ni 10.027069  6.278952  8.135061
Al  8.242847  4.460505  8.140589
Ni 11.821250  6.281372  9.935387
Ni 13.625526  4.474699  9.933067
Ni 13.629620  6.279287  8.126200
Al 11.830652  4.470722  8.128416
Ni  8.208961  9.972239  9.904916
Ni 10.007619  8.099623  9.928458
Ni 10.047596  9.891372  8.115449
Al  8.235377  8.099138  8.134567
Ni 11.837693  9.888031  9.928782
Ni 13.629025  8.083253  9.932677
Ni 13.634945  9.885794  8.120528
Al 11.831281  8.080945  8.129231
Ni  8.210284 13.461095  9.907482
Ni 10.064932 11.709142  9.912654
Ni 10.059169 13.514887  8.106901
Al  8.307753 11.713336  8.057957
Ni 11.854804 13.510228  9.922060
Ni 13.634772 11.694407  9.927562
Ni 13.643301 13.506165  8.116526
Al 11.849843 11.698027  8.111952
Ni  8.213260  2.644448  9.920262
Ni 10.047239  0.837322  9.914923
Ni 10.033821  2.653732  8.123024
Al  8.256051  0.834937  8.132104
Ni 11.836148  2.658759  9.928144
Ni 13.638840  0.854413  9.927742
Ni 13.637301  2.668035  8.122701
Al 11.848680  0.856491  8.115652
Ni  6.495007  6.263704  0.878717
Ni 10.006030  4.454241 13.526911
Ni 10.007243  6.277710 11.728854
Al  8.227813  4.438600 11.715170
Ni 11.810878  6.277829 13.538086
Ni 13.622573  4.475839 13.545768
Ni 13.621676  6.279986 11.739840
Al 11.820705  4.469002 11.737217
Ni  8.198652  9.953618 13.555676
Ni 10.002483  8.094873 13.529582
Ni 10.035252  9.897918 11.735040
Al  8.227908  8.113310 11.711282
Ni 11.832717  9.886752 13.545866
Ni 13.622942  8.081683 13.546534
Ni 13.630088  9.887782 11.739629
Al 11.818211  8.084465 11.735855
Ni  8.198915 13.504247 13.574168
Ni 10.053225 11.712941 13.561463
Ni 10.065093 13.514915 11.736927
Al  8.336735 11.730546 11.744098
Ni 11.854770 13.510527 13.551776
Ni 13.634917 11.693703 13.550729
Ni 13.637956 13.505638 11.738387
Al 11.844014 11.698871 11.739334
Ni  8.213531  2.593221 13.547997
Ni 10.036777  0.834984 13.549461
Ni 10.033809  2.644336 11.731698
Al  8.281991  0.821095 11.683914
Ni 11.832905  2.659854 13.541512
Ni 13.639950  0.855435 13.549214
Ni 13.630095  2.665526 11.738116
Al 11.844831  0.852169 11.736562
Ni  8.222297  6.277212  2.708847
Ni 10.033557  4.474427  2.701193
Ni 10.005725  6.275526  0.874473
Al  8.270516  4.445262  0.879604
Ni 11.822880  6.277178  2.693638
Ni 13.630245  4.480233  2.696463
Ni 13.622873  6.280200  0.886769
Al 11.818358  4.477582  0.881080
Ni  8.230464  9.890391  2.710599
Ni 10.022620  8.076883  2.697964
Ni 10.044605  9.887289  0.892066
Al  8.254600  8.098412  0.868656
Ni 11.839935  9.876183  2.700897
Ni 13.628295  8.077981  2.696469
Ni 13.629657  9.881745  0.892069
Al 11.815724  8.075162  0.882935
Ni  8.246086 13.495562  2.723215
Ni 10.068277 11.693145  2.718939
Ni 10.073709 13.504729  0.907180
Al  8.310268 11.705704  0.942578
Ni 11.861727 13.507160  2.709155
Ni 13.640860 11.690359  2.701185
Ni 13.642312 13.506853  0.895647
Al 11.848896 11.692863  0.898161
Ni  8.250431  2.658654  2.712686
Ni 10.078738  0.853503  2.724001
Ni 10.055823  2.660757  0.890370
Al  8.334137  0.837034  0.969855
Ni 11.844497  2.674763  2.704906
Ni 13.642628  0.858835  2.700880
Ni 13.629450  2.670512  0.890068
Al 11.848221  0.856317  0.894303
Ni  8.224721  6.277123  6.343193
Ni 10.028128  4.465044  6.333314
Ni 10.029806  6.275005  4.517947
Al  8.273434  4.462608  4.525813
Ni 11.830051  6.274959  6.323413
Ni 13.635180  4.477094  6.316169
Ni 13.628830  6.278651  4.506133
Al 11.829237  4.476361  4.513557
Ni  8.229539  9.901013  6.306225
Ni 10.034416  8.081594  6.329240
Ni 10.046782  9.881956  4.509984
Al  8.265944  8.082619  4.531655
Ni 11.844402  9.881180  6.312943
Ni 13.632633  8.079215  6.315425
Ni 13.637419  9.879733  4.505817
Al 11.828412  8.073639  4.508732
Ni  8.230405 13.516557  6.294228
Ni 10.065798 11.701462  6.295826
Ni 10.065634 13.510999  4.512408
Al  8.271586 11.704977  4.505015
Ni 11.856813 13.513935  6.310087
Ni 13.641348 11.693150  6.310971
Ni 13.649035 13.507806  4.507466
Al 11.855633 11.691723  4.508577
Ni  8.211498  2.642846  6.325236
Ni 10.043031  0.855846  6.313640
Ni 10.045237  2.664978  4.521675
Al  8.272474  0.846676  4.497391
Ni 11.843180  2.667698  6.320011
Ni 13.648556  0.857773  6.313056
Ni 13.641537  2.673617  4.507916
Al 11.856277  0.862185  4.516008
Ni  0.989659  6.213959  9.858612
Ni  2.762676  4.424952  9.876688
Al  4.755476  2.632907  6.265649
Ni  0.911800  4.404626  8.053856
Ni  4.492445  6.321575  9.908275
Ni  6.393649  4.443242  9.925809
Ni  4.553013  9.879437  9.868148
Ni  4.622457  4.461733  8.081702
Al  0.815793  0.833540  4.429508
Ni  0.905839  8.126566  8.015245
Ni  0.913244  9.967767  9.903034
Al  2.794212  2.751146  4.395423
Ni  4.577618 11.702908 11.696937
Ni  6.440886  8.120601  9.910620
Ni  6.421063  9.944489  8.099160
Ni  2.775714  9.924153  8.065931
Ni  0.961048 13.513075  9.899144
Ni  4.589694 11.714923  8.088991
Ni  2.758787 13.531532  8.046347
Al  4.651791 13.518492  6.323468
Ni  4.546562 13.548896  9.890740
Ni  6.440046  9.967431 11.721232
Ni  6.424805 13.505862  8.116446
Al  2.783592 13.445149  4.374796
Ni  0.947430  2.609846  9.873903
Ni  4.569483  0.880682  8.079484
Ni  0.971788  0.841230  8.021040
Ni  4.547813  2.617105  9.886980
Ni  6.400359  0.819437  9.928735
Ni  6.424747  2.640247  8.133712
Ni  2.796663  0.876375  6.177147
Ni  0.933854  6.229137 13.550736
Ni  2.798552  4.443582 13.571920
Al  4.714897  8.058659  8.099318
Ni  0.906138  4.384544 11.724654
Al  1.059287  9.959082  6.197874
Ni  6.473548  4.409003 13.526524
Ni  6.405273  6.269820 11.690419
Ni  4.614775  4.450690 11.706242
Ni  1.024850  9.886257 13.585333
Ni  2.832397  7.983881 13.451709
Ni  2.750955  9.871317 11.712311
Ni  0.932430  8.069172 11.724892
Ni  4.582786  9.838122 13.548033
Ni  8.197944  6.270054 13.511388
Al  2.873129  2.747364  1.046643
Ni  6.446663  8.109437 13.507873
Ni  0.977260  0.879299 11.749702
Al  0.963713 11.653281  0.928950
Ni  1.014628 11.775810 11.794868
Ni  4.562307 13.544664 13.580810
Ni  6.409377 13.517200 11.756747
Ni  2.770459 13.560914 11.746325
Al  4.688639  9.805767  2.787926
Al  2.798904  9.653475  0.902624
Ni  2.828916  0.932959 13.599621
Ni  2.766368  2.666565 11.712893
Ni  4.599404  2.679354 13.576622
Ni  6.405719  2.601105 11.736420
Al  4.788590  6.287365  2.720390
Al  4.607914  9.974168  6.216765
Al  2.755951  6.272765  0.814481
Al  0.924865  6.305203  2.747578
Ni  0.942810  4.484796  0.935639
Ni  6.496969  4.459910  2.707663
Ni  4.667315  4.512835  0.914383
Al  4.594599  0.873759 11.726895
Al  6.357418  0.830209 13.650347
Al  2.701527  0.786908  9.887602
Ni  0.938696  9.817222  2.703220
Al  0.992240  2.679522 13.607662
Ni  0.920629  8.039161  0.896996
Ni  2.823888  7.936662  2.745061
Ni  6.490373  8.087101  2.709829
Ni  6.424814  9.894529  0.892348
Ni  4.663411  8.010686  0.886037
Al  6.264772 11.720401 13.551528
Ni  0.940311 13.481721  2.667143
Ni  2.791294 11.595325  2.638526
Ni  2.778266 13.490435  0.922259
Al  1.031634 13.677919 13.611914
Ni  4.603000 13.482677  2.688841
Ni  6.439540 11.689019  2.676665
Ni  6.417334 13.483282  0.911931
Ni  4.573281 11.619530  0.917194
Al  2.907970 11.688139 13.470518
Ni  0.950913  2.702960  2.693692
Ni  2.772344  0.862724  2.740915
Al  4.703250  8.163984 11.670977
Ni  0.996999  0.909260  0.939665
Ni  4.641722  2.713245  2.747558
Ni  6.451766  0.839503  2.677276
Ni  6.434885  2.651344  0.918383
Ni  4.601199  0.873463  0.957295
Ni  0.950167  6.246177  6.262738
Ni  2.817586  4.386745  6.264175
Ni  2.824951  4.636893  2.734140
Ni  0.928750  4.481182  4.455510
Ni  4.670052  8.019456  4.587974
Ni  6.462153  4.468477  6.332375
Ni  6.463236  6.270265  4.561239
Ni  4.686513  4.516608  4.550799
Al  4.767335  6.190001 13.548467
Ni  0.972640 11.728856  8.048888
Ni  2.830156  8.083556  6.372875
Ni  2.819764  9.847654  4.458499
Ni  0.939786  8.072938  4.525540
Al  2.666359  6.127641 11.724227
Ni  6.387499  6.253726  8.117622
Ni  6.458242  9.901065  4.516482
Ni  6.438721  8.094777  6.344154
Al  2.710036  2.697701  8.038136
Ni  0.986097 13.487617  6.201516
Ni  2.816012 11.737106  6.245620
Al  6.274929 11.738795  9.923638
Ni  0.945037 11.686300  4.424306
Al  2.775086 11.726335  9.915310
Ni  6.436467 11.726038  6.304192
Ni  6.433332 13.512206  4.483495
Ni  4.637669 11.719001  4.463033
Al  2.734653  6.131048  7.992918
Al  2.871336  6.262130  4.710280
Ni  0.963666  2.642880  6.200954
Al  2.607031  8.182769  9.860739
Ni  4.634948  0.834471  4.476130
Ni  6.450707  0.825084  6.312828
Ni  6.462091  2.643232  4.488649
%ENDBLOCK POSITIONS_ABS

FIX_ALL_CELL: TRUE
KPOINT_MP_GRID: 1 1 1
