#######################################################
#CASTEP cell file: /home/u2093113/Documents/kART/CASTEP/castep.cell
#Created using the Atomic Simulation Environment (ASE)#
#######################################################

%BLOCK LATTICE_CART
14.464828  0.000000  0.000000
 0.000000 14.464828  0.000000
 0.000000  0.000000 14.464828
%ENDBLOCK LATTICE_CART

%BLOCK POSITIONS_ABS
Al 13.675245  0.940210 13.557603
Al  9.689620 13.584744 11.722414
Al 11.696803  0.985830 11.678670
Al  6.061560  0.809894  2.606185
Al  6.394511 13.568864 11.732218
Al  6.085600 10.111031 11.718277
Al  8.104632  0.882836  0.816817
Al  4.336484 13.662301 13.536355
Al 13.631324 11.800829 13.634580
Al 11.725811 11.792585 11.738596
Al  8.044673  8.280131  0.966806
Al  6.107935  8.098500 13.521767
Al  2.663420 10.113483 11.729919
Al 13.656468  4.435054 13.527466
Al  9.973758  8.151466 13.440391
Al  8.020259  4.560036 11.912539
Al  2.659195  6.164034 11.751954
Al  2.670429  8.143950 13.708524
Al 11.799801  0.950488  8.216557
Al  4.440631 13.512458  9.823414
Al  2.604529  0.993920  9.889800
Al 11.652948  9.969398  9.824291
Al  8.147023 10.064880  9.817249
Al  2.587392 10.087958  7.975658
Al 13.720632  8.132988  9.922167
Al 11.534051  6.436807  9.930855
Al  8.098869  6.350742  9.846120
Al  5.999780  8.128970  9.742685
Al  2.676141  8.079603  9.786179
Al 13.663195  4.455201  9.919832
Al 13.546721  8.209956 13.441051
Al 11.568155  6.528429  6.334347
Al 11.524062  4.371175  8.091363
Al  8.035675  2.643123  9.857024
Al  4.470458  4.583742  8.201261
Al 13.583114 13.583866  4.558627
Al 11.627679 13.489952  2.683986
Al  9.913674  0.888908  6.309347
Al  8.067195  0.802027  4.444596
Al  2.551596  0.811015  6.307638
Al  9.934900 11.892206  6.430048
Al 11.803742  9.882303  6.341666
Al  8.088284 11.807546  4.536906
Al 13.614291  6.463433  4.352777
Al  6.113196  6.268867  4.625721
Al  8.138990  8.303963  4.562977
Al  4.419475  7.175396  7.037551
Al 13.683604  4.402271  6.316525
Al 11.557477  4.408579  4.361899
Al  6.251992  2.865034  4.452368
Al  4.414724  2.731723  6.306960
Al 11.613803  0.986693  0.847552
Al 11.690077  9.995754  2.670164
Al  8.121814 11.727212  0.779910
Al  6.160203 11.783821  2.758323
Al  4.294351 11.682106  0.892404
Al 11.576411  4.460238  0.982469
Al 11.526927  4.473287 11.807746
Al 13.583932  6.391706  1.068020
Al  8.108934  6.201490  2.655568
Ni  0.845531  2.734859  2.691633
Ni  0.872875  4.537379  0.919525
Ni  0.939540  6.343335  2.706031
Ni  0.818466  8.169663  0.919284
Ni  0.838957  9.961716  2.713024
Ni  0.888714 11.773728  0.928789
Ni  0.851380 13.587261  2.695648
Ni  0.885213  0.929691  0.933461
Ni  0.900708  2.686888  6.285613
Ni  0.877257  4.528891  4.480773
Ni  0.850650  6.326809  6.288685
Ni  0.860212  8.200264  4.497508
Ni  0.799631  9.984540  6.282212
Ni  0.818278 11.763295  4.504652
Ni  0.814554 13.561134  6.322389
Ni  0.851324  0.933375  4.454985
Ni  0.868826  2.708784  9.921754
Ni  0.916803  4.509370  8.098072
Ni  0.903320  6.288087  9.899742
Ni  0.870032  8.132104  8.059582
Ni  0.929608  9.983087  9.916807
Ni  0.810744 11.802145  8.109567
Ni  0.813813 13.593188  9.908189
Ni  0.814429  0.922663  8.111308
Ni  0.912627  2.728887 13.564919
Ni  0.894987  4.487654 11.747289
Ni  0.823815  6.336483 13.578643
Ni  1.040273  8.132347 11.741918
Ni  0.901995  9.955234 13.551313
Ni  0.843153 11.810903 11.702141
Ni  0.896135 13.593470 13.559423
Ni  0.886151  0.944306 11.726860
Ni  2.668212  4.533031  2.710354
Ni  4.435243  2.728506  2.697702
Ni  4.439002  4.542449  0.911623
Ni  2.650199  2.725451  0.914569
Ni  6.217139  4.558334  2.658563
Ni  7.980268  2.650189  2.699216
Ni  7.999843  4.519544  0.845711
Ni  6.222163  2.696473  0.894269
Ni  9.798292  4.455091  2.676895
Ni 11.690512  2.654306  2.683789
Ni  9.806904  2.721545  0.871328
Ni 13.511098  4.511076  2.727003
Ni 13.506394  8.238341  2.704956
Ni 13.527118  2.720266  0.908443
Ni  2.653781  8.156626  2.732335
Ni  4.439762  6.364329  2.714801
Ni  4.462957  8.165886  0.964361
Ni  2.655807  6.330634  0.919096
Ni  6.319840  8.114563  2.809422
Ni  9.855720  6.401784  0.851566
Ni  6.258359  6.393556  0.921726
Ni  9.861353  8.149176  2.693764
Ni 13.496969  9.976779  4.497895
Ni 11.726424  8.136350  0.863969
Ni  2.603623 11.746722  2.748884
Ni  4.445517  9.948373  2.744620
Ni  2.610528  9.943819  0.956524
Ni  8.066299 10.046673  2.715297
Ni  6.223279 10.006670  0.930814
Ni  9.885707 11.749167  2.672687
Ni 13.534061  9.969505  0.885413
Ni 11.701450 11.767664  0.829080
Ni 13.520756 11.795552  2.685031
Ni  2.654964  0.934743  2.711651
Ni  4.366297 13.519306  2.700286
Ni  4.375283  0.935012  0.865940
Ni  2.629273 13.585699  0.915470
Ni  6.189729 13.495902  0.885537
Ni  8.075664 13.540069  2.646725
Ni  6.188402 11.794042 13.546926
Ni  8.043017 13.550959 13.577356
Ni  9.894972  0.901217  2.671518
Ni 13.508918 13.630884  0.904641
Ni  9.919843 13.555440  0.830572
Ni 13.489363  0.888100  2.675707
Ni 11.684610 13.620804 13.492890
Ni  2.667913  4.541726  6.291487
Ni  4.393620  4.527256  4.498187
Ni  2.647117  2.712108  4.497270
Ni  6.247703  4.493969  6.352126
Ni  8.062765  2.666610  6.279868
Ni  8.068258  4.538513  4.519615
Ni  9.884502  4.526056  6.256816
Ni 11.727675  2.714943  6.252771
Ni  9.815241  2.643490  4.483097
Ni 13.517088  2.706731  4.473051
Ni  2.594687  8.185127  6.280387
Ni  4.444549  8.151098  4.554218
Ni  2.660364  6.355571  4.531686
Ni  6.307081  8.184789  6.291975
Ni  8.066593  6.347942  6.277004
Ni  9.827702  8.219363  6.340677
Ni  9.851930  6.364543  4.490901
Ni 11.662950  8.166575  4.482429
Ni 11.636127  6.351215  2.689081
Ni 13.534062  8.099292  6.308399
Ni  2.611168 11.823512  6.268788
Ni  4.443685  9.947639  6.290100
Ni  4.392725 11.774721  4.532370
Ni  2.640120  9.970120  4.519794
Ni  6.208622 11.783885  6.294350
Ni  8.050082 10.070200  6.353469
Ni  6.242198  9.994479  4.517009
Ni  9.896823 13.558205  4.512910
Ni  9.910485 10.047756  4.555782
Ni 13.507257 11.766565  6.327275
Ni 11.728103 11.781836  4.536192
Ni  4.440139 13.591725  6.283669
Ni  4.420403  0.945341  4.512958
Ni  2.612671 13.577182  4.475966
Ni  6.235313  0.958180  6.252644
Ni  8.029626 13.589180  6.314292
Ni  6.212696 13.584771  4.498328
Ni 11.745030 13.638747  6.337088
Ni 11.732600  0.899655  4.461938
Ni 13.542747  0.963487  6.294586
Ni  2.664885  4.452676  9.915539
Ni  4.486569  2.707247  9.916943
Ni  2.664194  2.724509  8.058299
Ni  6.341789  4.519228  9.948677
Ni  6.245904  2.715775 11.734606
Ni  8.087417  4.495255  8.057359
Ni  6.239623  2.708949  8.087504
Ni  9.843761  2.643931  8.074103
Ni 13.529443  2.757216  8.132644
Ni  4.429733  6.306608  9.916629
Ni  2.616501  6.300110  8.067692
Ni  8.025337  8.192704  8.115996
Ni  9.894327  9.979814  8.059366
Ni  6.317149  6.320409  8.055734
Ni  7.896762  8.242944 11.575880
Ni  9.866039  6.338898  8.086291
Ni 13.418426  6.212420  8.104634
Ni 11.729206  8.152322  8.186022
Ni  2.612369 11.827181  9.888401
Ni  4.355849  9.996408  9.825721
Ni  4.444076 11.775099  8.053119
Ni  6.240097 11.787337  9.867779
Ni  8.035911 11.841531  8.103452
Ni  6.218866  9.986057  8.086101
Ni  9.921033 11.830367  9.893259
Ni  9.820602  8.184540  9.911700
Ni 11.742712 11.817521  8.104083
Ni 13.509184 11.792272  9.917252
Ni 13.559969  9.950439  8.155049
Ni  4.448095  0.912390  8.087641
Ni  2.623087 13.570679  8.119861
Ni  6.214510  0.887332  9.901552
Ni  8.033596 13.591813  9.863343
Ni  8.009362  0.879390  8.087642
Ni  6.228236 13.594140  8.049661
Ni  9.855667  0.919368  9.948691
Ni 11.710594 13.588532  9.983560
Ni  9.905667 13.656762  8.164993
Ni 13.547417  0.936770  9.952831
Ni 13.509837 13.594824  8.120896
Ni  2.667297  4.498346 13.595707
Ni  4.448699  2.709657 13.550145
Ni  4.495957  4.494466 11.732755
Ni  2.683440  2.731832 11.743988
Ni  6.200156  4.544655 13.577988
Ni  8.022059  2.710131 13.562964
Ni  9.802885  4.506870  9.935662
Ni  6.212520  0.908023 13.551168
Ni  9.824516  4.563986 13.603083
Ni 11.679448  2.729203 13.559921
Ni 11.677299  2.774941  9.957608
Ni  9.800038  2.732911 11.759696
Ni 13.494352  6.246565 11.650009
Ni 13.520073  2.721853 11.740383
Ni  4.406382  6.316317 13.561661
Ni  4.302489  8.146857 11.695406
Ni  8.013669  9.868788 13.494289
Ni  6.204899  6.342681 11.692864
Ni  9.910964  9.945992  0.833513
Ni 11.841911  6.237501 13.605042
Ni 11.761111  8.178514 11.653918
Ni  9.831371  6.362557 11.760205
Ni  2.608244 11.815012 13.556421
Ni  4.419634  9.960176 13.556538
Ni  4.418461 11.900914 11.721885
Ni  8.047833 11.680270 11.730962
Ni  8.020879  6.472770 13.587671
Ni  9.900818 11.743217 13.488878
Ni 11.745627  9.994213 13.525928
Ni  9.902203  9.958044 11.719761
Ni 13.564541 10.005809 11.673895
Ni  2.628122  0.949500 13.522289
Ni  4.464069  0.875148 11.689108
Ni  2.601674 13.612172 11.680713
Ni  8.001474  0.962202 11.760888
Ni  9.846994  0.929801 13.484265
Ni 13.544044 13.599489 11.746074
%ENDBLOCK POSITIONS_ABS

