#######################################################
#CASTEP cell file: /home/u2093113/Documents/kART/CASTEP/castep.cell
#Created using the Atomic Simulation Environment (ASE)#
#######################################################

%BLOCK LATTICE_CART
14.464828  0.000000  0.000000
 0.000000 14.464828  0.000000
 0.000000  0.000000 14.464828
%ENDBLOCK LATTICE_CART

%BLOCK POSITIONS_ABS
Al 13.676581  0.943343 13.552440
Al  9.686845 13.589314 11.720861
Al 11.696508  0.989233 11.676713
Al  6.062024  0.810333  2.606038
Al  6.392995 13.567850 11.728063
Al  6.085984 10.120343 11.730500
Al  8.101157  0.887378  0.814594
Al  4.337001 13.665043 13.528313
Al 13.632918 11.807308 13.631872
Al 11.726446 11.798272 11.738116
Al  8.038880  8.275560  0.974192
Al  6.106371  8.097776 13.525062
Al  2.662289 10.113341 11.732545
Al 13.658266  4.434204 13.526031
Al  9.976781  8.149608 13.448087
Al  8.016225  4.562447 11.910130
Al  2.662208  6.163591 11.748799
Al  2.669145  8.143494 13.714176
Al 11.801222  0.950917  8.215665
Al  4.439712 13.513571  9.820675
Al  2.611961  1.000701  9.884354
Al 11.656237  9.972710  9.825352
Al  8.157773 10.074337  9.824627
Al  2.564771 10.087808  7.969625
Al 13.720111  8.133254  9.923291
Al 11.535328  6.438742  9.929847
Al  8.125043  6.341812  9.845347
Al  6.092956  8.124668  9.839772
Al  2.609741  8.082863  9.818839
Al 13.660082  4.452942  9.916217
Al 13.542398  8.210920 13.449418
Al 11.566776  6.528311  6.327143
Al 11.524166  4.370830  8.087578
Al  8.032262  2.649971  9.854692
Al  4.474509  4.656273  8.132304
Al 13.582347 13.589345  4.556922
Al 11.627760 13.496069  2.680836
Al  9.916500  0.887993  6.308052
Al  8.067523  0.800528  4.444889
Al  2.553457  0.813637  6.309295
Al  9.936272 11.898378  6.428974
Al 11.803054  9.888652  6.336880
Al  8.089936 11.814671  4.533133
Al 13.606276  6.462260  4.342809
Al  6.025415  6.277645  4.728800
Al  8.154675  8.304006  4.542805
Al  4.477663  7.848150  7.651344
Al 13.680092  4.403444  6.310929
Al 11.557049  4.406516  4.356799
Al  6.251800  2.854864  4.454165
Al  4.415596  2.736721  6.311122
Al 11.613422  0.990424  0.843389
Al 11.688998 10.002149  2.664438
Al  8.121497 11.732857  0.778495
Al  6.159811 11.791666  2.754830
Al  4.294245 11.686715  0.890731
Al 11.574403  4.460165  0.982110
Al 11.527169  4.472692 11.809462
Al 13.587402  6.388385  1.069997
Al  8.077261  6.201577  2.679879
Ni  0.845902  2.734167  2.689400
Ni  0.875734  4.536138  0.919957
Ni  0.946018  6.343356  2.711189
Ni  0.819239  8.170098  0.922327
Ni  0.836604  9.966583  2.708885
Ni  0.889058 11.779880  0.925624
Ni  0.852050 13.592330  2.692266
Ni  0.887775  0.933236  0.927702
Ni  0.902323  2.689363  6.284690
Ni  0.878223  4.530423  4.477342
Ni  0.840831  6.327093  6.272774
Ni  0.852468  8.199586  4.484224
Ni  0.791863  9.987205  6.271595
Ni  0.815870 11.770278  4.499901
Ni  0.815395 13.565087  6.321120
Ni  0.851236  0.933658  4.454912
Ni  0.875325  2.719492  9.915014
Ni  0.915372  4.516932  8.091161
Ni  0.896042  6.281745  9.894865
Ni  0.847060  8.133723  8.046582
Ni  0.920311  9.988486  9.919079
Ni  0.807317 11.805312  8.108346
Ni  0.820508 13.594579  9.906555
Ni  0.819407  0.927341  8.110128
Ni  0.917783  2.732343 13.559467
Ni  0.898905  4.489664 11.740337
Ni  0.825437  6.334651 13.581693
Ni  1.026312  8.130402 11.755938
Ni  0.901912  9.958847 13.553963
Ni  0.845672 11.814291 11.700653
Ni  0.899882 13.599033 13.553096
Ni  0.893444  0.950093 11.720279
Ni  2.668993  4.530991  2.710566
Ni  4.432597  2.722795  2.695413
Ni  4.439917  4.545522  0.916126
Ni  2.652330  2.727080  0.910263
Ni  6.207192  4.562892  2.675302
Ni  7.977173  2.652173  2.700973
Ni  7.993518  4.523655  0.852578
Ni  6.219245  2.702585  0.896404
Ni  9.791002  4.461904  2.677130
Ni 11.688168  2.655205  2.681448
Ni  9.802254  2.725358  0.871962
Ni 13.511910  4.508078  2.725526
Ni 13.502703  8.241751  2.699220
Ni 13.527382  2.720643  0.906076
Ni  2.656739  8.158907  2.737892
Ni  4.442580  6.366061  2.735390
Ni  4.462003  8.165898  0.969983
Ni  2.659172  6.330616  0.924701
Ni  6.310285  8.112490  2.824394
Ni  9.845500  6.398396  0.859533
Ni  6.253416  6.393966  0.927422
Ni  9.863401  8.148640  2.687053
Ni 13.492914  9.981299  4.489537
Ni 11.724496  8.135659  0.863873
Ni  2.602126 11.753209  2.745779
Ni  4.444145  9.952320  2.747165
Ni  2.611218  9.947694  0.958015
Ni  8.067467 10.051062  2.710170
Ni  6.221616 10.007390  0.934283
Ni  9.885159 11.756462  2.668101
Ni 13.532367  9.974543  0.884119
Ni 11.701897 11.774554  0.826013
Ni 13.520221 11.802895  2.681516
Ni  2.652974  0.935489  2.708830
Ni  4.365735 13.524388  2.696990
Ni  4.376294  0.938482  0.860681
Ni  2.631050 13.591241  0.910891
Ni  6.188607 13.502202  0.881662
Ni  8.074539 13.545111  2.644071
Ni  6.185733 11.798820 13.549409
Ni  8.040379 13.555814 13.574881
Ni  9.892579  0.904181  2.668922
Ni 13.510522 13.636352  0.900648
Ni  9.918759 13.562096  0.828298
Ni 13.490190  0.890364  2.673424
Ni 11.684659 13.626942 13.490057
Ni  2.658742  4.545512  6.282109
Ni  4.386396  4.497741  4.498242
Ni  2.642718  2.706733  4.497206
Ni  6.279090  4.463902  6.355753
Ni  8.072276  2.656020  6.280025
Ni  8.060419  4.537910  4.523291
Ni  9.887311  4.524619  6.251598
Ni 11.727460  2.715853  6.250860
Ni  9.813798  2.645713  4.479704
Ni 13.518060  2.707155  4.470106
Ni  2.572407  8.180590  6.254138
Ni  4.435363  8.165172  4.571339
Ni  2.679080  6.351445  4.542978
Ni  6.368318  8.213208  6.253254
Ni  8.077883  6.346451  6.265251
Ni  9.833182  8.223804  6.332948
Ni  9.854435  6.362456  4.481867
Ni 11.659719  8.170468  4.475205
Ni 11.636218  6.348953  2.683239
Ni 13.525440  8.100862  6.296008
Ni  2.608585 11.825238  6.267210
Ni  4.435698  9.957479  6.288843
Ni  4.392001 11.779946  4.528845
Ni  2.632171  9.980339  4.513724
Ni  6.208224 11.779242  6.298845
Ni  8.064816 10.081482  6.345773
Ni  6.247803 10.007504  4.509710
Ni  9.898139 13.562648  4.510793
Ni  9.914549 10.055294  4.547482
Ni 13.506849 11.771224  6.324304
Ni 11.728737 11.788114  4.533373
Ni  4.439687 13.588227  6.285843
Ni  4.419133  0.944556  4.513809
Ni  2.613327 13.580204  4.475415
Ni  6.233395  0.957684  6.254168
Ni  8.028174 13.589323  6.316904
Ni  6.211421 13.585613  4.500298
Ni 11.746165 13.642407  6.336298
Ni 11.731779  0.902385  4.460830
Ni 13.545849  0.966082  6.293812
Ni  2.679533  4.475119  9.893186
Ni  4.488393  2.732849  9.893105
Ni  2.670134  2.739333  8.053026
Ni  6.334617  4.536303  9.929583
Ni  6.243195  2.727518 11.723230
Ni  8.099633  4.492692  8.055403
Ni  6.238475  2.713746  8.089527
Ni  9.847757  2.640981  8.073724
Ni 13.530343  2.758595  8.130223
Ni  4.429016  6.362768  9.869835
Ni  2.601345  6.328240  8.034823
Ni  8.053215  8.202783  8.114177
Ni  9.900918  9.985429  8.058048
Ni  6.357774  6.342349  8.041614
Ni  7.916145  8.241527 11.589638
Ni  9.873168  6.339787  8.080826
Ni 13.413773  6.212880  8.098539
Ni 11.731300  8.154400  8.182533
Ni  2.618932 11.815809  9.884386
Ni  4.351014  9.944122  9.805641
Ni  4.442712 11.766900  8.057106
Ni  6.234350 11.772886  9.864907
Ni  8.031840 11.835989  8.102902
Ni  6.216920  9.954781  8.090091
Ni  9.923250 11.834145  9.894595
Ni  9.829576  8.189642  9.914164
Ni 11.744372 11.822426  8.104806
Ni 13.509117 11.795915  9.918387
Ni 13.556595  9.955423  8.151516
Ni  4.446818  0.915076  8.085031
Ni  2.625923 13.569029  8.119347
Ni  6.210669  0.892716  9.896801
Ni  8.029044 13.588231  9.861466
Ni  8.007627  0.879455  8.089220
Ni  6.225676 13.591321  8.050725
Ni  9.851892  0.921585  9.947865
Ni 11.711165 13.594457  9.982767
Ni  9.903395 13.658977  8.165365
Ni 13.552619  0.941482  9.949689
Ni 13.512233 13.599708  8.120502
Ni  2.669255  4.500875 13.594484
Ni  4.449803  2.718255 13.543978
Ni  4.497934  4.511086 11.714084
Ni  2.691146  2.745915 11.731736
Ni  6.196762  4.548088 13.577015
Ni  8.016998  2.715198 13.562464
Ni  9.810539  4.503549  9.935926
Ni  6.209480  0.914208 13.545810
Ni  9.819815  4.564588 13.604753
Ni 11.678349  2.730668 13.557717
Ni 11.678722  2.773982  9.955021
Ni  9.796721  2.736072 11.758552
Ni 13.493252  6.244823 11.651158
Ni 13.522472  2.723064 11.736226
Ni  4.405702  6.315369 13.564427
Ni  4.289808  8.144896 11.707914
Ni  8.015123  9.871475 13.500969
Ni  6.203845  6.344779 11.693096
Ni  9.909717  9.948820  0.833234
Ni 11.839181  6.235449 13.607723
Ni 11.762748  8.178416 11.657269
Ni  9.836663  6.361813 11.764464
Ni  2.608843 11.817494 13.554588
Ni  4.417941  9.961452 13.560507
Ni  4.416995 11.895017 11.715125
Ni  8.048562 11.683971 11.734144
Ni  8.019743  6.472021 13.591136
Ni  9.901679 11.748629 13.488510
Ni 11.745336  9.998323 13.528231
Ni  9.906701  9.961752 11.725642
Ni 13.562451 10.009509 11.678229
Ni  2.632696  0.957018 13.514064
Ni  4.464953  0.887008 11.679114
Ni  2.607309 13.614734 11.673559
Ni  7.995763  0.966332 11.757357
Ni  9.843611  0.934086 13.482645
Ni 13.545752 13.605073 11.742779
%ENDBLOCK POSITIONS_ABS

