#######################################################
#CASTEP cell file: /home/u2093113/Documents/kART/CASTEP/castep.cell
#Created using the Atomic Simulation Environment (ASE)#
#######################################################

%BLOCK LATTICE_CART
14.464828  0.000000  0.000000
 0.000000 14.464828  0.000000
 0.000000  0.000000 14.464828
%ENDBLOCK LATTICE_CART

%BLOCK POSITIONS_ABS
Al 13.673908  0.937077 13.562765
Al  9.692394 13.580175 11.723966
Al 11.697098  0.982427 11.680626
Al  6.061096  0.809455  2.606332
Al  6.396026 13.569877 11.736372
Al  6.085216 10.101719 11.706055
Al  8.108107  0.878294  0.819041
Al  4.335967 13.659560 13.544397
Al 13.629729 11.794351 13.637288
Al 11.725176 11.786899 11.739076
Al  8.050465  8.284701  0.959420
Al  6.109499  8.099224 13.518472
Al  2.664551 10.113625 11.727294
Al 13.654670  4.435903 13.528902
Al  9.970735  8.153325 13.432694
Al  8.024294  4.557624 11.914949
Al  2.656183  6.164477 11.755110
Al  2.671712  8.144407 13.702872
Al 11.798380  0.950059  8.217448
Al  4.441550 13.511346  9.826153
Al  2.597096  0.987139  9.895246
Al 11.649659  9.966087  9.823230
Al  8.136273 10.055423  9.809870
Al  2.610013 10.088108  7.981690
Al 13.721153  8.132722  9.921043
Al 11.532774  6.434873  9.931862
Al  8.072696  6.359671  9.846893
Al  5.906603  8.133273  9.645599
Al  2.742541  8.076343  9.753519
Al 13.666308  4.457460  9.923448
Al 13.551044  8.208991 13.432685
Al 11.569534  6.528547  6.341551
Al 11.523959  4.371520  8.095149
Al  8.039089  2.636274  9.859356
Al  4.466406  4.511210  8.270217
Al 13.583881 13.578387  4.560332
Al 11.627597 13.483836  2.687135
Al  9.910847  0.889824  6.310643
Al  8.066868  0.803527  4.444303
Al  2.549735  0.808393  6.305981
Al  9.933527 11.886033  6.431121
Al 11.804431  9.875954  6.346452
Al  8.086633 11.800422  4.540679
Al 13.622305  6.464606  4.362745
Al  6.200976  6.260089  4.522643
Al  8.123304  8.303920  4.583148
Al  4.361287  6.502643  6.423758
Al 13.687115  4.401098  6.322121
Al 11.557906  4.410641  4.366999
Al  6.252185  2.875204  4.450570
Al  4.413852  2.726725  6.302797
Al 11.614184  0.982962  0.851715
Al 11.691155  9.989360  2.675889
Al  8.122131 11.721567  0.781325
Al  6.160594 11.775976  2.761816
Al  4.294458 11.677497  0.894077
Al 11.578418  4.460312  0.982828
Al 11.526685  4.473881 11.806030
Al 13.580462  6.395027  1.066043
Al  8.140608  6.201403  2.631256
Ni  0.845160  2.735551  2.693865
Ni  0.870016  4.538620  0.919093
Ni  0.933062  6.343315  2.700873
Ni  0.817692  8.169228  0.916240
Ni  0.841311  9.956850  2.717163
Ni  0.888370 11.767576  0.931954
Ni  0.850710 13.582191  2.699029
Ni  0.882651  0.926147  0.939219
Ni  0.899094  2.684413  6.286536
Ni  0.876292  4.527359  4.484204
Ni  0.860469  6.326524  6.304596
Ni  0.867956  8.200941  4.510793
Ni  0.807398  9.981874  6.292829
Ni  0.820687 11.756312  4.509402
Ni  0.813712 13.557181  6.323657
Ni  0.851412  0.933091  4.455058
Ni  0.862327  2.698075  9.928494
Ni  0.918235  4.501808  8.104983
Ni  0.910598  6.294429  9.904618
Ni  0.893004  8.130484  8.072581
Ni  0.938905  9.977689  9.914534
Ni  0.814172 11.798977  8.110789
Ni  0.807118 13.591797  9.909824
Ni  0.809451  0.917984  8.112488
Ni  0.907472  2.725430 13.570372
Ni  0.891070  4.485644 11.754241
Ni  0.822193  6.338315 13.575594
Ni  1.054234  8.134292 11.727898
Ni  0.902078  9.951621 13.548663
Ni  0.840635 11.807514 11.703628
Ni  0.892387 13.587907 13.565749
Ni  0.878859  0.938518 11.733440
Ni  2.667431  4.535071  2.710143
Ni  4.437889  2.734218  2.699992
Ni  4.438087  4.539376  0.907120
Ni  2.648069  2.723822  0.918875
Ni  6.227086  4.553776  2.641825
Ni  7.983363  2.648205  2.697458
Ni  8.006167  4.515434  0.838843
Ni  6.225081  2.690362  0.892133
Ni  9.805583  4.448279  2.676661
Ni 11.692857  2.653407  2.686131
Ni  9.811553  2.717733  0.870695
Ni 13.510287  4.514074  2.728480
Ni 13.510084  8.234931  2.710691
Ni 13.526854  2.719888  0.910810
Ni  2.650823  8.154344  2.726778
Ni  4.436944  6.362596  2.694212
Ni  4.463911  8.165873  0.958739
Ni  2.652443  6.330653  0.913491
Ni  6.329396  8.116636  2.794449
Ni  9.865940  6.405172  0.843598
Ni  6.263303  6.393147  0.916030
Ni  9.859304  8.149712  2.700475
Ni 13.501024  9.972260  4.506253
Ni 11.728352  8.137041  0.864066
Ni  2.605120 11.740235  2.751989
Ni  4.446889  9.944426  2.742074
Ni  2.609838  9.939943  0.955033
Ni  8.065132 10.042285  2.720425
Ni  6.224942 10.005951  0.927344
Ni  9.886256 11.741871  2.677274
Ni 13.535755  9.964467  0.886708
Ni 11.701003 11.760773  0.832147
Ni 13.521291 11.788208  2.688547
Ni  2.656954  0.933997  2.714473
Ni  4.366858 13.514224  2.703582
Ni  4.374272  0.931542  0.871200
Ni  2.627496 13.580157  0.920049
Ni  6.190850 13.489603  0.889411
Ni  8.076789 13.535028  2.649379
Ni  6.191071 11.789265 13.544442
Ni  8.045654 13.546104 13.579830
Ni  9.897365  0.898252  2.674114
Ni 13.507315 13.625417  0.908633
Ni  9.920926 13.548783  0.832846
Ni 13.488537  0.885836  2.677991
Ni 11.684562 13.614665 13.495723
Ni  2.677084  4.537940  6.300866
Ni  4.400844  4.556771  4.498132
Ni  2.651516  2.717484  4.497334
Ni  6.216316  4.524036  6.348498
Ni  8.053253  2.677201  6.279711
Ni  8.076097  4.539116  4.515938
Ni  9.881692  4.527493  6.262034
Ni 11.727890  2.714034  6.254683
Ni  9.816683  2.641267  4.486489
Ni 13.516115  2.706308  4.475996
Ni  2.616966  8.189664  6.306637
Ni  4.453734  8.137023  4.537097
Ni  2.641648  6.359696  4.520394
Ni  6.245844  8.156371  6.330696
Ni  8.055303  6.349434  6.288756
Ni  9.822223  8.214921  6.348406
Ni  9.849425  6.366630  4.499934
Ni 11.666180  8.162681  4.489654
Ni 11.636036  6.353477  2.694922
Ni 13.542685  8.097721  6.320789
Ni  2.613751 11.821787  6.270367
Ni  4.451673  9.937798  6.291357
Ni  4.393449 11.769496  4.535895
Ni  2.648070  9.959901  4.525864
Ni  6.209020 11.788528  6.289854
Ni  8.035348 10.058917  6.361166
Ni  6.236593  9.981454  4.524309
Ni  9.895506 13.553763  4.515027
Ni  9.906420 10.040219  4.564082
Ni 13.507664 11.761906  6.330245
Ni 11.727470 11.775558  4.539012
Ni  4.440592 13.595224  6.281495
Ni  4.421673  0.946126  4.512107
Ni  2.612015 13.574161  4.476518
Ni  6.237231  0.958675  6.251121
Ni  8.031079 13.589038  6.311680
Ni  6.213970 13.583929  4.496358
Ni 11.743895 13.635086  6.337879
Ni 11.733421  0.896925  4.463045
Ni 13.539644  0.960892  6.295360
Ni  2.650238  4.430233  9.937893
Ni  4.484746  2.681646  9.940782
Ni  2.658254  2.709686  8.063573
Ni  6.348960  4.502154  9.967771
Ni  6.248613  2.704032 11.745983
Ni  8.075201  4.497819  8.059316
Ni  6.240770  2.704153  8.085481
Ni  9.839765  2.646881  8.074482
Ni 13.528543  2.755837  8.135065
Ni  4.430449  6.250448  9.963424
Ni  2.631657  6.271979  8.100561
Ni  7.997458  8.182626  8.117815
Ni  9.887736  9.974199  8.060684
Ni  6.276523  6.298468  8.069854
Ni  7.877379  8.244362 11.562122
Ni  9.858909  6.338009  8.091756
Ni 13.423079  6.211960  8.110729
Ni 11.727112  8.150244  8.189511
Ni  2.605806 11.838554  9.892416
Ni  4.360684 10.048693  9.845800
Ni  4.445440 11.783299  8.049131
Ni  6.245843 11.801788  9.870652
Ni  8.039982 11.847073  8.104002
Ni  6.220811 10.017332  8.082111
Ni  9.918816 11.826590  9.891922
Ni  9.811627  8.179437  9.909236
Ni 11.741053 11.812616  8.103361
Ni 13.509250 11.788629  9.916117
Ni 13.563343  9.945455  8.158582
Ni  4.449372  0.909705  8.090251
Ni  2.620250 13.572328  8.120374
Ni  6.218350  0.881949  9.906303
Ni  8.038149 13.595395  9.865220
Ni  8.011097  0.879325  8.086063
Ni  6.230796 13.596959  8.048597
Ni  9.859442  0.917151  9.949518
Ni 11.710023 13.582607  9.984353
Ni  9.907939 13.654546  8.164622
Ni 13.542214  0.932057  9.955973
Ni 13.507441 13.589940  8.121291
Ni  2.665339  4.495818 13.596930
Ni  4.447595  2.701059 13.556312
Ni  4.493981  4.477846 11.751427
Ni  2.675733  2.717749 11.756240
Ni  6.203549  4.541223 13.578962
Ni  8.027120  2.705064 13.563464
Ni  9.795231  4.510190  9.935398
Ni  6.215560  0.901838 13.556526
Ni  9.829216  4.563383 13.601413
Ni 11.680547  2.727739 13.562125
Ni 11.675876  2.775899  9.960196
Ni  9.803355  2.729749 11.760839
Ni 13.495452  6.248307 11.648860
Ni 13.517674  2.720642 11.744540
Ni  4.407062  6.317265 13.558895
Ni  4.315169  8.148818 11.682898
Ni  8.012216  9.866101 13.487609
Ni  6.205953  6.340584 11.692631
Ni  9.912211  9.943164  0.833793
Ni 11.844641  6.239553 13.602362
Ni 11.759474  8.178612 11.650567
Ni  9.826079  6.363301 11.755947
Ni  2.607645 11.812530 13.558254
Ni  4.421327  9.958900 13.552570
Ni  4.419928 11.906811 11.728645
Ni  8.047104 11.676568 11.727781
Ni  8.022015  6.473519 13.584206
Ni  9.899957 11.737805 13.489247
Ni 11.745917  9.990104 13.523626
Ni  9.897705  9.954335 11.713879
Ni 13.566631 10.002110 11.669561
Ni  2.623548  0.941983 13.530513
Ni  4.463184  0.863287 11.699103
Ni  2.596039 13.609610 11.687867
Ni  8.007185  0.958072 11.764420
Ni  9.850378  0.925517 13.485886
Ni 13.542337 13.593905 11.749369
%ENDBLOCK POSITIONS_ABS

