%block lattice_abc 
  14.46482773 14.46482773 14.46482773 #lattice params 
 90.0  90.0  90.0 
     %endblock lattice_abc 
     fix_all_cell : true 
     %BLOCK POSITIONS_ABS 
Al 13.673908  0.937077 13.562765
 Al  9.692394 13.580175 11.723966
 Al 11.697098  0.982427 11.680626
 Al  6.061096  0.809455  2.606332
 Al  6.396026 13.569877 11.736372
 Al  6.085216 10.101719 11.706055
 Al  8.108107  0.878294  0.819041
 Al  4.335967 13.659560 13.544397
 Al 13.629729 11.794351 13.637288
 Al 11.725176 11.786899 11.739076
 Al  8.050465  8.284701  0.959420
 Al  6.109499  8.099224 13.518472
 Al  2.664551 10.113625 11.727294
 Al 13.654670  4.435903 13.528902
 Al  9.970735  8.153325 13.432694
 Al  8.024294  4.557624 11.914949
 Al  2.656183  6.164477 11.755110
 Al  2.671712  8.144407 13.702872
 Al 11.798380  0.950059  8.217448
 Al  4.441550 13.511346  9.826153
 Al  2.597096  0.987139  9.895246
 Al 11.649659  9.966087  9.823230
 Al  8.136273 10.055423  9.809870
 Al  2.610013 10.088108  7.981690
 Al 13.721153  8.132722  9.921043
 Al 11.532774  6.434873  9.931862
 Al  8.072696  6.359671  9.846893
 Al  5.906603  8.133273  9.645599
 Al  2.742541  8.076343  9.753519
 Al 13.666308  4.457460  9.923448
 Al 13.551044  8.208991 13.432685
 Al 11.569534  6.528547  6.341551
 Al 11.523959  4.371520  8.095149
 Al  8.039089  2.636274  9.859356
 Al  4.466406  4.511210  8.270217
 Al 13.583881 13.578387  4.560332
 Al 11.627597 13.483836  2.687135
 Al  9.910847  0.889824  6.310643
 Al  8.066868  0.803527  4.444303
 Al  2.549735  0.808393  6.305981
 Al  9.933527 11.886033  6.431121
 Al 11.804431  9.875954  6.346452
 Al  8.086633 11.800422  4.540679
 Al 13.622305  6.464606  4.362745
 Al  6.200976  6.260089  4.522643
 Al  8.123304  8.303920  4.583148
 Al  4.361287  6.502643  6.423758
 Al 13.687115  4.401098  6.322121
 Al 11.557906  4.410641  4.366999
 Al  6.252185  2.875204  4.450570
 Al  4.413852  2.726725  6.302797
 Al 11.614184  0.982962  0.851715
 Al 11.691155  9.989360  2.675889
 Al  8.122131 11.721567  0.781325
 Al  6.160594 11.775976  2.761816
 Al  4.294458 11.677497  0.894077
 Al 11.578418  4.460312  0.982828
 Al 11.526685  4.473881 11.806030
 Al 13.580462  6.395027  1.066043
 Al  8.140608  6.201403  2.631256
 Ni  0.845160  2.735551  2.693865
 Ni  0.870016  4.538620  0.919093
 Ni  0.933062  6.343315  2.700873
 Ni  0.817692  8.169228  0.916240
 Ni  0.841311  9.956850  2.717163
 Ni  0.888370 11.767576  0.931954
 Ni  0.850710 13.582191  2.699029
 Ni  0.882651  0.926147  0.939219
 Ni  0.899094  2.684413  6.286536
 Ni  0.876292  4.527359  4.484204
 Ni  0.860469  6.326524  6.304596
 Ni  0.867956  8.200941  4.510793
 Ni  0.807398  9.981874  6.292829
 Ni  0.820687 11.756312  4.509402
 Ni  0.813712 13.557181  6.323657
 Ni  0.851412  0.933091  4.455058
 Ni  0.862327  2.698075  9.928494
 Ni  0.918235  4.501808  8.104983
 Ni  0.910598  6.294429  9.904618
 Ni  0.893004  8.130484  8.072581
 Ni  0.938905  9.977689  9.914534
 Ni  0.814172 11.798977  8.110789
 Ni  0.807118 13.591797  9.909824
 Ni  0.809451  0.917984  8.112488
 Ni  0.907472  2.725430 13.570372
 Ni  0.891070  4.485644 11.754241
 Ni  0.822193  6.338315 13.575594
 Ni  1.054234  8.134292 11.727898
 Ni  0.902078  9.951621 13.548663
 Ni  0.840635 11.807514 11.703628
 Ni  0.892387 13.587907 13.565749
 Ni  0.878859  0.938518 11.733440
 Ni  2.667431  4.535071  2.710143
 Ni  4.437889  2.734218  2.699992
 Ni  4.438087  4.539376  0.907120
 Ni  2.648069  2.723822  0.918875
 Ni  6.227086  4.553776  2.641825
 Ni  7.983363  2.648205  2.697458
 Ni  8.006167  4.515434  0.838843
 Ni  6.225081  2.690362  0.892133
 Ni  9.805583  4.448279  2.676661
 Ni 11.692857  2.653407  2.686131
 Ni  9.811553  2.717733  0.870695
 Ni 13.510287  4.514074  2.728480
 Ni 13.510084  8.234931  2.710691
 Ni 13.526854  2.719888  0.910810
 Ni  2.650823  8.154344  2.726778
 Ni  4.436944  6.362596  2.694212
 Ni  4.463911  8.165873  0.958739
 Ni  2.652443  6.330653  0.913491
 Ni  6.329396  8.116636  2.794449
 Ni  9.865940  6.405172  0.843598
 Ni  6.263303  6.393147  0.916030
 Ni  9.859304  8.149712  2.700475
 Ni 13.501024  9.972260  4.506253
 Ni 11.728352  8.137041  0.864066
 Ni  2.605120 11.740235  2.751989
 Ni  4.446889  9.944426  2.742074
 Ni  2.609838  9.939943  0.955033
 Ni  8.065132 10.042285  2.720425
 Ni  6.224942 10.005951  0.927344
 Ni  9.886256 11.741871  2.677274
 Ni 13.535755  9.964467  0.886708
 Ni 11.701003 11.760773  0.832147
 Ni 13.521291 11.788208  2.688547
 Ni  2.656954  0.933997  2.714473
 Ni  4.366858 13.514224  2.703582
 Ni  4.374272  0.931542  0.871200
 Ni  2.627496 13.580157  0.920049
 Ni  6.190850 13.489603  0.889411
 Ni  8.076789 13.535028  2.649379
 Ni  6.191071 11.789265 13.544442
 Ni  8.045654 13.546104 13.579830
 Ni  9.897365  0.898252  2.674114
 Ni 13.507315 13.625417  0.908633
 Ni  9.920926 13.548783  0.832846
 Ni 13.488537  0.885836  2.677991
 Ni 11.684562 13.614665 13.495723
 Ni  2.677084  4.537940  6.300866
 Ni  4.400844  4.556771  4.498132
 Ni  2.651516  2.717484  4.497334
 Ni  6.216316  4.524036  6.348498
 Ni  8.053253  2.677201  6.279711
 Ni  8.076097  4.539116  4.515938
 Ni  9.881692  4.527493  6.262034
 Ni 11.727890  2.714034  6.254683
 Ni  9.816683  2.641267  4.486489
 Ni 13.516115  2.706308  4.475996
 Ni  2.616966  8.189664  6.306637
 Ni  4.453734  8.137023  4.537097
 Ni  2.641648  6.359696  4.520394
 Ni  6.245844  8.156371  6.330696
 Ni  8.055303  6.349434  6.288756
 Ni  9.822223  8.214921  6.348406
 Ni  9.849425  6.366630  4.499934
 Ni 11.666180  8.162681  4.489654
 Ni 11.636036  6.353477  2.694922
 Ni 13.542685  8.097721  6.320789
 Ni  2.613751 11.821787  6.270367
 Ni  4.451673  9.937798  6.291357
 Ni  4.393449 11.769496  4.535895
 Ni  2.648070  9.959901  4.525864
 Ni  6.209020 11.788528  6.289854
 Ni  8.035348 10.058917  6.361166
 Ni  6.236593  9.981454  4.524309
 Ni  9.895506 13.553763  4.515027
 Ni  9.906420 10.040219  4.564082
 Ni 13.507664 11.761906  6.330245
 Ni 11.727470 11.775558  4.539012
 Ni  4.440592 13.595224  6.281495
 Ni  4.421673  0.946126  4.512107
 Ni  2.612015 13.574161  4.476518
 Ni  6.237231  0.958675  6.251121
 Ni  8.031079 13.589038  6.311680
 Ni  6.213970 13.583929  4.496358
 Ni 11.743895 13.635086  6.337879
 Ni 11.733421  0.896925  4.463045
 Ni 13.539644  0.960892  6.295360
 Ni  2.650238  4.430233  9.937893
 Ni  4.484746  2.681646  9.940782
 Ni  2.658254  2.709686  8.063573
 Ni  6.348960  4.502154  9.967771
 Ni  6.248613  2.704032 11.745983
 Ni  8.075201  4.497819  8.059316
 Ni  6.240770  2.704153  8.085481
 Ni  9.839765  2.646881  8.074482
 Ni 13.528543  2.755837  8.135065
 Ni  4.430449  6.250448  9.963424
 Ni  2.631657  6.271979  8.100561
 Ni  7.997458  8.182626  8.117815
 Ni  9.887736  9.974199  8.060684
 Ni  6.276523  6.298468  8.069854
 Ni  7.877379  8.244362 11.562122
 Ni  9.858909  6.338009  8.091756
 Ni 13.423079  6.211960  8.110729
 Ni 11.727112  8.150244  8.189511
 Ni  2.605806 11.838554  9.892416
 Ni  4.360684 10.048693  9.845800
 Ni  4.445440 11.783299  8.049131
 Ni  6.245843 11.801788  9.870652
 Ni  8.039982 11.847073  8.104002
 Ni  6.220811 10.017332  8.082111
 Ni  9.918816 11.826590  9.891922
 Ni  9.811627  8.179437  9.909236
 Ni 11.741053 11.812616  8.103361
 Ni 13.509250 11.788629  9.916117
 Ni 13.563343  9.945455  8.158582
 Ni  4.449372  0.909705  8.090251
 Ni  2.620250 13.572328  8.120374
 Ni  6.218350  0.881949  9.906303
 Ni  8.038149 13.595395  9.865220
 Ni  8.011097  0.879325  8.086063
 Ni  6.230796 13.596959  8.048597
 Ni  9.859442  0.917151  9.949518
 Ni 11.710023 13.582607  9.984353
 Ni  9.907939 13.654546  8.164622
 Ni 13.542214  0.932057  9.955973
 Ni 13.507441 13.589940  8.121291
 Ni  2.665339  4.495818 13.596930
 Ni  4.447595  2.701059 13.556312
 Ni  4.493981  4.477846 11.751427
 Ni  2.675733  2.717749 11.756240
 Ni  6.203549  4.541223 13.578962
 Ni  8.027120  2.705064 13.563464
 Ni  9.795231  4.510190  9.935398
 Ni  6.215560  0.901838 13.556526
 Ni  9.829216  4.563383 13.601413
 Ni 11.680547  2.727739 13.562125
 Ni 11.675876  2.775899  9.960196
 Ni  9.803355  2.729749 11.760839
 Ni 13.495452  6.248307 11.648860
 Ni 13.517674  2.720642 11.744540
 Ni  4.407062  6.317265 13.558895
 Ni  4.315169  8.148818 11.682898
 Ni  8.012216  9.866101 13.487609
 Ni  6.205953  6.340584 11.692631
 Ni  9.912211  9.943164  0.833793
 Ni 11.844641  6.239553 13.602362
 Ni 11.759474  8.178612 11.650567
 Ni  9.826079  6.363301 11.755947
 Ni  2.607645 11.812530 13.558254
 Ni  4.421327  9.958900 13.552570
 Ni  4.419928 11.906811 11.728645
 Ni  8.047104 11.676568 11.727781
 Ni  8.022015  6.473519 13.584206
 Ni  9.899957 11.737805 13.489247
 Ni 11.745917  9.990104 13.523626
 Ni  9.897705  9.954335 11.713879
 Ni 13.566631 10.002110 11.669561
 Ni  2.623548  0.941983 13.530513
 Ni  4.463184  0.863287 11.699103
 Ni  2.596039 13.609610 11.687867
 Ni  8.007185  0.958072 11.764420
 Ni  9.850378  0.925517 13.485886
 Ni 13.542337 13.593905 11.749369
 %ENDBLOCK POSITIONS_ABS
 
%block positions_abs_product 
     ang 
Al 13.676581  0.943343 13.552440
 Al  9.686845 13.589314 11.720861
 Al 11.696508  0.989233 11.676713
 Al  6.062024  0.810333  2.606038
 Al  6.392995 13.567850 11.728063
 Al  6.085984 10.120343 11.730500
 Al  8.101157  0.887378  0.814594
 Al  4.337001 13.665043 13.528313
 Al 13.632918 11.807308 13.631872
 Al 11.726446 11.798272 11.738116
 Al  8.038880  8.275560  0.974192
 Al  6.106371  8.097776 13.525062
 Al  2.662289 10.113341 11.732545
 Al 13.658266  4.434204 13.526031
 Al  9.976781  8.149608 13.448087
 Al  8.016225  4.562447 11.910130
 Al  2.662208  6.163591 11.748799
 Al  2.669145  8.143494 13.714176
 Al 11.801222  0.950917  8.215665
 Al  4.439712 13.513571  9.820675
 Al  2.611961  1.000701  9.884354
 Al 11.656237  9.972710  9.825352
 Al  8.157773 10.074337  9.824627
 Al  2.564771 10.087808  7.969625
 Al 13.720111  8.133254  9.923291
 Al 11.535328  6.438742  9.929847
 Al  8.125043  6.341812  9.845347
 Al  6.092956  8.124668  9.839772
 Al  2.609741  8.082863  9.818839
 Al 13.660082  4.452942  9.916217
 Al 13.542398  8.210920 13.449418
 Al 11.566776  6.528311  6.327143
 Al 11.524166  4.370830  8.087578
 Al  8.032262  2.649971  9.854692
 Al  4.474509  4.656273  8.132304
 Al 13.582347 13.589345  4.556922
 Al 11.627760 13.496069  2.680836
 Al  9.916500  0.887993  6.308052
 Al  8.067523  0.800528  4.444889
 Al  2.553457  0.813637  6.309295
 Al  9.936272 11.898378  6.428974
 Al 11.803054  9.888652  6.336880
 Al  8.089936 11.814671  4.533133
 Al 13.606276  6.462260  4.342809
 Al  6.025415  6.277645  4.728800
 Al  8.154675  8.304006  4.542805
 Al  4.477663  7.848150  7.651344
 Al 13.680092  4.403444  6.310929
 Al 11.557049  4.406516  4.356799
 Al  6.251800  2.854864  4.454165
 Al  4.415596  2.736721  6.311122
 Al 11.613422  0.990424  0.843389
 Al 11.688998 10.002149  2.664438
 Al  8.121497 11.732857  0.778495
 Al  6.159811 11.791666  2.754830
 Al  4.294245 11.686715  0.890731
 Al 11.574403  4.460165  0.982110
 Al 11.527169  4.472692 11.809462
 Al 13.587402  6.388385  1.069997
 Al  8.077261  6.201577  2.679879
 Ni  0.845902  2.734167  2.689400
 Ni  0.875734  4.536138  0.919957
 Ni  0.946018  6.343356  2.711189
 Ni  0.819239  8.170098  0.922327
 Ni  0.836604  9.966583  2.708885
 Ni  0.889058 11.779880  0.925624
 Ni  0.852050 13.592330  2.692266
 Ni  0.887775  0.933236  0.927702
 Ni  0.902323  2.689363  6.284690
 Ni  0.878223  4.530423  4.477342
 Ni  0.840831  6.327093  6.272774
 Ni  0.852468  8.199586  4.484224
 Ni  0.791863  9.987205  6.271595
 Ni  0.815870 11.770278  4.499901
 Ni  0.815395 13.565087  6.321120
 Ni  0.851236  0.933658  4.454912
 Ni  0.875325  2.719492  9.915014
 Ni  0.915372  4.516932  8.091161
 Ni  0.896042  6.281745  9.894865
 Ni  0.847060  8.133723  8.046582
 Ni  0.920311  9.988486  9.919079
 Ni  0.807317 11.805312  8.108346
 Ni  0.820508 13.594579  9.906555
 Ni  0.819407  0.927341  8.110128
 Ni  0.917783  2.732343 13.559467
 Ni  0.898905  4.489664 11.740337
 Ni  0.825437  6.334651 13.581693
 Ni  1.026312  8.130402 11.755938
 Ni  0.901912  9.958847 13.553963
 Ni  0.845672 11.814291 11.700653
 Ni  0.899882 13.599033 13.553096
 Ni  0.893444  0.950093 11.720279
 Ni  2.668993  4.530991  2.710566
 Ni  4.432597  2.722795  2.695413
 Ni  4.439917  4.545522  0.916126
 Ni  2.652330  2.727080  0.910263
 Ni  6.207192  4.562892  2.675302
 Ni  7.977173  2.652173  2.700973
 Ni  7.993518  4.523655  0.852578
 Ni  6.219245  2.702585  0.896404
 Ni  9.791002  4.461904  2.677130
 Ni 11.688168  2.655205  2.681448
 Ni  9.802254  2.725358  0.871962
 Ni 13.511910  4.508078  2.725526
 Ni 13.502703  8.241751  2.699220
 Ni 13.527382  2.720643  0.906076
 Ni  2.656739  8.158907  2.737892
 Ni  4.442580  6.366061  2.735390
 Ni  4.462003  8.165898  0.969983
 Ni  2.659172  6.330616  0.924701
 Ni  6.310285  8.112490  2.824394
 Ni  9.845500  6.398396  0.859533
 Ni  6.253416  6.393966  0.927422
 Ni  9.863401  8.148640  2.687053
 Ni 13.492914  9.981299  4.489537
 Ni 11.724496  8.135659  0.863873
 Ni  2.602126 11.753209  2.745779
 Ni  4.444145  9.952320  2.747165
 Ni  2.611218  9.947694  0.958015
 Ni  8.067467 10.051062  2.710170
 Ni  6.221616 10.007390  0.934283
 Ni  9.885159 11.756462  2.668101
 Ni 13.532367  9.974543  0.884119
 Ni 11.701897 11.774554  0.826013
 Ni 13.520221 11.802895  2.681516
 Ni  2.652974  0.935489  2.708830
 Ni  4.365735 13.524388  2.696990
 Ni  4.376294  0.938482  0.860681
 Ni  2.631050 13.591241  0.910891
 Ni  6.188607 13.502202  0.881662
 Ni  8.074539 13.545111  2.644071
 Ni  6.185733 11.798820 13.549409
 Ni  8.040379 13.555814 13.574881
 Ni  9.892579  0.904181  2.668922
 Ni 13.510522 13.636352  0.900648
 Ni  9.918759 13.562096  0.828298
 Ni 13.490190  0.890364  2.673424
 Ni 11.684659 13.626942 13.490057
 Ni  2.658742  4.545512  6.282109
 Ni  4.386396  4.497741  4.498242
 Ni  2.642718  2.706733  4.497206
 Ni  6.279090  4.463902  6.355753
 Ni  8.072276  2.656020  6.280025
 Ni  8.060419  4.537910  4.523291
 Ni  9.887311  4.524619  6.251598
 Ni 11.727460  2.715853  6.250860
 Ni  9.813798  2.645713  4.479704
 Ni 13.518060  2.707155  4.470106
 Ni  2.572407  8.180590  6.254138
 Ni  4.435363  8.165172  4.571339
 Ni  2.679080  6.351445  4.542978
 Ni  6.368318  8.213208  6.253254
 Ni  8.077883  6.346451  6.265251
 Ni  9.833182  8.223804  6.332948
 Ni  9.854435  6.362456  4.481867
 Ni 11.659719  8.170468  4.475205
 Ni 11.636218  6.348953  2.683239
 Ni 13.525440  8.100862  6.296008
 Ni  2.608585 11.825238  6.267210
 Ni  4.435698  9.957479  6.288843
 Ni  4.392001 11.779946  4.528845
 Ni  2.632171  9.980339  4.513724
 Ni  6.208224 11.779242  6.298845
 Ni  8.064816 10.081482  6.345773
 Ni  6.247803 10.007504  4.509710
 Ni  9.898139 13.562648  4.510793
 Ni  9.914549 10.055294  4.547482
 Ni 13.506849 11.771224  6.324304
 Ni 11.728737 11.788114  4.533373
 Ni  4.439687 13.588227  6.285843
 Ni  4.419133  0.944556  4.513809
 Ni  2.613327 13.580204  4.475415
 Ni  6.233395  0.957684  6.254168
 Ni  8.028174 13.589323  6.316904
 Ni  6.211421 13.585613  4.500298
 Ni 11.746165 13.642407  6.336298
 Ni 11.731779  0.902385  4.460830
 Ni 13.545849  0.966082  6.293812
 Ni  2.679533  4.475119  9.893186
 Ni  4.488393  2.732849  9.893105
 Ni  2.670134  2.739333  8.053026
 Ni  6.334617  4.536303  9.929583
 Ni  6.243195  2.727518 11.723230
 Ni  8.099633  4.492692  8.055403
 Ni  6.238475  2.713746  8.089527
 Ni  9.847757  2.640981  8.073724
 Ni 13.530343  2.758595  8.130223
 Ni  4.429016  6.362768  9.869835
 Ni  2.601345  6.328240  8.034823
 Ni  8.053215  8.202783  8.114177
 Ni  9.900918  9.985429  8.058048
 Ni  6.357774  6.342349  8.041614
 Ni  7.916145  8.241527 11.589638
 Ni  9.873168  6.339787  8.080826
 Ni 13.413773  6.212880  8.098539
 Ni 11.731300  8.154400  8.182533
 Ni  2.618932 11.815809  9.884386
 Ni  4.351014  9.944122  9.805641
 Ni  4.442712 11.766900  8.057106
 Ni  6.234350 11.772886  9.864907
 Ni  8.031840 11.835989  8.102902
 Ni  6.216920  9.954781  8.090091
 Ni  9.923250 11.834145  9.894595
 Ni  9.829576  8.189642  9.914164
 Ni 11.744372 11.822426  8.104806
 Ni 13.509117 11.795915  9.918387
 Ni 13.556595  9.955423  8.151516
 Ni  4.446818  0.915076  8.085031
 Ni  2.625923 13.569029  8.119347
 Ni  6.210669  0.892716  9.896801
 Ni  8.029044 13.588231  9.861466
 Ni  8.007627  0.879455  8.089220
 Ni  6.225676 13.591321  8.050725
 Ni  9.851892  0.921585  9.947865
 Ni 11.711165 13.594457  9.982767
 Ni  9.903395 13.658977  8.165365
 Ni 13.552619  0.941482  9.949689
 Ni 13.512233 13.599708  8.120502
 Ni  2.669255  4.500875 13.594484
 Ni  4.449803  2.718255 13.543978
 Ni  4.497934  4.511086 11.714084
 Ni  2.691146  2.745915 11.731736
 Ni  6.196762  4.548088 13.577015
 Ni  8.016998  2.715198 13.562464
 Ni  9.810539  4.503549  9.935926
 Ni  6.209480  0.914208 13.545810
 Ni  9.819815  4.564588 13.604753
 Ni 11.678349  2.730668 13.557717
 Ni 11.678722  2.773982  9.955021
 Ni  9.796721  2.736072 11.758552
 Ni 13.493252  6.244823 11.651158
 Ni 13.522472  2.723064 11.736226
 Ni  4.405702  6.315369 13.564427
 Ni  4.289808  8.144896 11.707914
 Ni  8.015123  9.871475 13.500969
 Ni  6.203845  6.344779 11.693096
 Ni  9.909717  9.948820  0.833234
 Ni 11.839181  6.235449 13.607723
 Ni 11.762748  8.178416 11.657269
 Ni  9.836663  6.361813 11.764464
 Ni  2.608843 11.817494 13.554588
 Ni  4.417941  9.961452 13.560507
 Ni  4.416995 11.895017 11.715125
 Ni  8.048562 11.683971 11.734144
 Ni  8.019743  6.472021 13.591136
 Ni  9.901679 11.748629 13.488510
 Ni 11.745336  9.998323 13.528231
 Ni  9.906701  9.961752 11.725642
 Ni 13.562451 10.009509 11.678229
 Ni  2.632696  0.957018 13.514064
 Ni  4.464953  0.887008 11.679114
 Ni  2.607309 13.614734 11.673559
 Ni  7.995763  0.966332 11.757357
 Ni  9.843611  0.934086 13.482645
 Ni 13.545752 13.605073 11.742779
%endblock positions_abs_product 
%block positions_abs_intermediate 
     ang 
Al 13.675245  0.940210 13.557603
 Al  9.689620 13.584744 11.722414
 Al 11.696803  0.985830 11.678670
 Al  6.061560  0.809894  2.606185
 Al  6.394511 13.568864 11.732218
 Al  6.085600 10.111031 11.718277
 Al  8.104632  0.882836  0.816817
 Al  4.336484 13.662301 13.536355
 Al 13.631324 11.800829 13.634580
 Al 11.725811 11.792585 11.738596
 Al  8.044673  8.280131  0.966806
 Al  6.107935  8.098500 13.521767
 Al  2.663420 10.113483 11.729919
 Al 13.656468  4.435054 13.527466
 Al  9.973758  8.151466 13.440391
 Al  8.020259  4.560036 11.912539
 Al  2.659195  6.164034 11.751954
 Al  2.670429  8.143950 13.708524
 Al 11.799801  0.950488  8.216557
 Al  4.440631 13.512458  9.823414
 Al  2.604529  0.993920  9.889800
 Al 11.652948  9.969398  9.824291
 Al  8.147023 10.064880  9.817249
 Al  2.587392 10.087958  7.975658
 Al 13.720632  8.132988  9.922167
 Al 11.534051  6.436807  9.930855
 Al  8.098869  6.350742  9.846120
 Al  5.999780  8.128970  9.742685
 Al  2.676141  8.079603  9.786179
 Al 13.663195  4.455201  9.919832
 Al 13.546721  8.209956 13.441051
 Al 11.568155  6.528429  6.334347
 Al 11.524062  4.371175  8.091363
 Al  8.035675  2.643123  9.857024
 Al  4.470458  4.583742  8.201261
 Al 13.583114 13.583866  4.558627
 Al 11.627679 13.489952  2.683986
 Al  9.913674  0.888908  6.309347
 Al  8.067195  0.802027  4.444596
 Al  2.551596  0.811015  6.307638
 Al  9.934900 11.892206  6.430048
 Al 11.803742  9.882303  6.341666
 Al  8.088284 11.807546  4.536906
 Al 13.614291  6.463433  4.352777
 Al  6.113196  6.268867  4.625721
 Al  8.138990  8.303963  4.562977
 Al  4.419475  7.175396  7.037551
 Al 13.683604  4.402271  6.316525
 Al 11.557477  4.408579  4.361899
 Al  6.251992  2.865034  4.452368
 Al  4.414724  2.731723  6.306960
 Al 11.613803  0.986693  0.847552
 Al 11.690077  9.995754  2.670164
 Al  8.121814 11.727212  0.779910
 Al  6.160203 11.783821  2.758323
 Al  4.294351 11.682106  0.892404
 Al 11.576411  4.460238  0.982469
 Al 11.526927  4.473287 11.807746
 Al 13.583932  6.391706  1.068020
 Al  8.108934  6.201490  2.655568
 Ni  0.845531  2.734859  2.691633
 Ni  0.872875  4.537379  0.919525
 Ni  0.939540  6.343335  2.706031
 Ni  0.818466  8.169663  0.919284
 Ni  0.838957  9.961716  2.713024
 Ni  0.888714 11.773728  0.928789
 Ni  0.851380 13.587261  2.695648
 Ni  0.885213  0.929691  0.933461
 Ni  0.900708  2.686888  6.285613
 Ni  0.877257  4.528891  4.480773
 Ni  0.850650  6.326809  6.288685
 Ni  0.860212  8.200264  4.497508
 Ni  0.799631  9.984540  6.282212
 Ni  0.818278 11.763295  4.504652
 Ni  0.814554 13.561134  6.322389
 Ni  0.851324  0.933375  4.454985
 Ni  0.868826  2.708784  9.921754
 Ni  0.916803  4.509370  8.098072
 Ni  0.903320  6.288087  9.899742
 Ni  0.870032  8.132104  8.059582
 Ni  0.929608  9.983087  9.916807
 Ni  0.810744 11.802145  8.109567
 Ni  0.813813 13.593188  9.908189
 Ni  0.814429  0.922663  8.111308
 Ni  0.912627  2.728887 13.564919
 Ni  0.894987  4.487654 11.747289
 Ni  0.823815  6.336483 13.578643
 Ni  1.040273  8.132347 11.741918
 Ni  0.901995  9.955234 13.551313
 Ni  0.843153 11.810903 11.702141
 Ni  0.896135 13.593470 13.559423
 Ni  0.886151  0.944306 11.726860
 Ni  2.668212  4.533031  2.710354
 Ni  4.435243  2.728506  2.697702
 Ni  4.439002  4.542449  0.911623
 Ni  2.650199  2.725451  0.914569
 Ni  6.217139  4.558334  2.658563
 Ni  7.980268  2.650189  2.699216
 Ni  7.999843  4.519544  0.845711
 Ni  6.222163  2.696473  0.894269
 Ni  9.798292  4.455091  2.676895
 Ni 11.690512  2.654306  2.683789
 Ni  9.806904  2.721545  0.871328
 Ni 13.511098  4.511076  2.727003
 Ni 13.506394  8.238341  2.704956
 Ni 13.527118  2.720266  0.908443
 Ni  2.653781  8.156626  2.732335
 Ni  4.439762  6.364329  2.714801
 Ni  4.462957  8.165886  0.964361
 Ni  2.655807  6.330634  0.919096
 Ni  6.319840  8.114563  2.809422
 Ni  9.855720  6.401784  0.851566
 Ni  6.258359  6.393556  0.921726
 Ni  9.861353  8.149176  2.693764
 Ni 13.496969  9.976779  4.497895
 Ni 11.726424  8.136350  0.863969
 Ni  2.603623 11.746722  2.748884
 Ni  4.445517  9.948373  2.744620
 Ni  2.610528  9.943819  0.956524
 Ni  8.066299 10.046673  2.715297
 Ni  6.223279 10.006670  0.930814
 Ni  9.885707 11.749167  2.672687
 Ni 13.534061  9.969505  0.885413
 Ni 11.701450 11.767664  0.829080
 Ni 13.520756 11.795552  2.685031
 Ni  2.654964  0.934743  2.711651
 Ni  4.366297 13.519306  2.700286
 Ni  4.375283  0.935012  0.865940
 Ni  2.629273 13.585699  0.915470
 Ni  6.189729 13.495902  0.885537
 Ni  8.075664 13.540069  2.646725
 Ni  6.188402 11.794042 13.546926
 Ni  8.043017 13.550959 13.577356
 Ni  9.894972  0.901217  2.671518
 Ni 13.508918 13.630884  0.904641
 Ni  9.919843 13.555440  0.830572
 Ni 13.489363  0.888100  2.675707
 Ni 11.684610 13.620804 13.492890
 Ni  2.667913  4.541726  6.291487
 Ni  4.393620  4.527256  4.498187
 Ni  2.647117  2.712108  4.497270
 Ni  6.247703  4.493969  6.352126
 Ni  8.062765  2.666610  6.279868
 Ni  8.068258  4.538513  4.519615
 Ni  9.884502  4.526056  6.256816
 Ni 11.727675  2.714943  6.252771
 Ni  9.815241  2.643490  4.483097
 Ni 13.517088  2.706731  4.473051
 Ni  2.594687  8.185127  6.280387
 Ni  4.444549  8.151098  4.554218
 Ni  2.660364  6.355571  4.531686
 Ni  6.307081  8.184789  6.291975
 Ni  8.066593  6.347942  6.277004
 Ni  9.827702  8.219363  6.340677
 Ni  9.851930  6.364543  4.490901
 Ni 11.662950  8.166575  4.482429
 Ni 11.636127  6.351215  2.689081
 Ni 13.534062  8.099292  6.308399
 Ni  2.611168 11.823512  6.268788
 Ni  4.443685  9.947639  6.290100
 Ni  4.392725 11.774721  4.532370
 Ni  2.640120  9.970120  4.519794
 Ni  6.208622 11.783885  6.294350
 Ni  8.050082 10.070200  6.353469
 Ni  6.242198  9.994479  4.517009
 Ni  9.896823 13.558205  4.512910
 Ni  9.910485 10.047756  4.555782
 Ni 13.507257 11.766565  6.327275
 Ni 11.728103 11.781836  4.536192
 Ni  4.440139 13.591725  6.283669
 Ni  4.420403  0.945341  4.512958
 Ni  2.612671 13.577182  4.475966
 Ni  6.235313  0.958180  6.252644
 Ni  8.029626 13.589180  6.314292
 Ni  6.212696 13.584771  4.498328
 Ni 11.745030 13.638747  6.337088
 Ni 11.732600  0.899655  4.461938
 Ni 13.542747  0.963487  6.294586
 Ni  2.664885  4.452676  9.915539
 Ni  4.486569  2.707247  9.916943
 Ni  2.664194  2.724509  8.058299
 Ni  6.341789  4.519228  9.948677
 Ni  6.245904  2.715775 11.734606
 Ni  8.087417  4.495255  8.057359
 Ni  6.239623  2.708949  8.087504
 Ni  9.843761  2.643931  8.074103
 Ni 13.529443  2.757216  8.132644
 Ni  4.429733  6.306608  9.916629
 Ni  2.616501  6.300110  8.067692
 Ni  8.025337  8.192704  8.115996
 Ni  9.894327  9.979814  8.059366
 Ni  6.317149  6.320409  8.055734
 Ni  7.896762  8.242944 11.575880
 Ni  9.866039  6.338898  8.086291
 Ni 13.418426  6.212420  8.104634
 Ni 11.729206  8.152322  8.186022
 Ni  2.612369 11.827181  9.888401
 Ni  4.355849  9.996408  9.825721
 Ni  4.444076 11.775099  8.053119
 Ni  6.240097 11.787337  9.867779
 Ni  8.035911 11.841531  8.103452
 Ni  6.218866  9.986057  8.086101
 Ni  9.921033 11.830367  9.893259
 Ni  9.820602  8.184540  9.911700
 Ni 11.742712 11.817521  8.104083
 Ni 13.509184 11.792272  9.917252
 Ni 13.559969  9.950439  8.155049
 Ni  4.448095  0.912390  8.087641
 Ni  2.623087 13.570679  8.119861
 Ni  6.214510  0.887332  9.901552
 Ni  8.033596 13.591813  9.863343
 Ni  8.009362  0.879390  8.087642
 Ni  6.228236 13.594140  8.049661
 Ni  9.855667  0.919368  9.948691
 Ni 11.710594 13.588532  9.983560
 Ni  9.905667 13.656762  8.164993
 Ni 13.547417  0.936770  9.952831
 Ni 13.509837 13.594824  8.120896
 Ni  2.667297  4.498346 13.595707
 Ni  4.448699  2.709657 13.550145
 Ni  4.495957  4.494466 11.732755
 Ni  2.683440  2.731832 11.743988
 Ni  6.200156  4.544655 13.577988
 Ni  8.022059  2.710131 13.562964
 Ni  9.802885  4.506870  9.935662
 Ni  6.212520  0.908023 13.551168
 Ni  9.824516  4.563986 13.603083
 Ni 11.679448  2.729203 13.559921
 Ni 11.677299  2.774941  9.957608
 Ni  9.800038  2.732911 11.759696
 Ni 13.494352  6.246565 11.650009
 Ni 13.520073  2.721853 11.740383
 Ni  4.406382  6.316317 13.561661
 Ni  4.302489  8.146857 11.695406
 Ni  8.013669  9.868788 13.494289
 Ni  6.204899  6.342681 11.692864
 Ni  9.910964  9.945992  0.833513
 Ni 11.841911  6.237501 13.605042
 Ni 11.761111  8.178514 11.653918
 Ni  9.831371  6.362557 11.760205
 Ni  2.608244 11.815012 13.556421
 Ni  4.419634  9.960176 13.556538
 Ni  4.418461 11.900914 11.721885
 Ni  8.047833 11.680270 11.730962
 Ni  8.020879  6.472770 13.587671
 Ni  9.900818 11.743217 13.488878
 Ni 11.745627  9.994213 13.525928
 Ni  9.902203  9.958044 11.719761
 Ni 13.564541 10.005809 11.673895
 Ni  2.628122  0.949500 13.522289
 Ni  4.464069  0.875148 11.689108
 Ni  2.601674 13.612172 11.680713
 Ni  8.001474  0.962202 11.760888
 Ni  9.846994  0.929801 13.484265
 Ni 13.544044 13.599489 11.746074
%endblock positions_abs_intermediate 
     kpoint_mp_grid 1 1 1 
     fix_com : false