#######################################################
#CASTEP cell file: /home/u2093113/Documents/kART/barriers/CASTEP/castep.cell
#Created using the Atomic Simulation Environment (ASE)#
#######################################################

%BLOCK LATTICE_CART
14.464828  0.000000  0.000000
 0.000000 14.464828  0.000000
 0.000000  0.000000 14.464828
%ENDBLOCK LATTICE_CART

%BLOCK POSITIONS_ABS
Ni  0.844034  2.736621  2.706596
Ni  0.840648  4.535376  0.904967
Ni  0.850163  6.338126  2.724228
Ni  0.838655  8.136982  0.914069
Ni  0.827158  9.944381  2.729536
Ni  0.840815 11.759994  0.904842
Ni  0.829179 13.577940  2.692529
Ni  0.839803  0.932136  0.905351
Ni  0.828425  2.731774  6.299041
Ni  0.850271  4.540426  4.514813
Ni  0.853543  6.331861  6.313432
Ni  0.845620  8.141410  4.527848
Ni  0.803056  9.974279  6.294136
Ni  0.806856 11.766847  4.489596
Ni  0.773568 13.572971  6.291982
Ni  0.808830  0.923630  4.484343
Ni  0.784023  2.729292  9.923841
Ni  0.813533  4.521140  8.114274
Ni  0.861117  6.328302  9.930338
Ni  0.848325  8.161135  8.114828
Ni  0.892528  9.962650  9.907408
Ni  0.777752 11.794010  8.098776
Ni  0.796669 13.605754  9.925039
Ni  0.784785  0.927574  8.109995
Ni  0.821557  2.731126 13.567093
Ni  0.811578  4.506584 11.749274
Ni  0.880768  6.333694 13.550660
Ni  1.002729  8.143951 11.717769
Ni  0.877512  9.950440 13.532854
Ni  0.815579 11.792436 11.731270
Ni  0.832661 13.595337 13.544198
Ni  0.797651  0.944500 11.740982
Ni  2.651743  4.536590  2.708091
Ni  4.436450  2.745281  2.705703
Ni  4.451930  4.525805  0.888502
Ni  2.623755  2.742607  0.894640
Ni  6.266528  4.551893  2.658520
Ni  8.008594  2.653357  2.663285
Ni  8.073471  4.528073  0.842279
Ni  6.231911  2.694846  0.894103
Ni  9.853408  4.483615  2.665207
Ni 11.688032  2.670011  2.665535
Al 13.689960  0.929048 13.541005
Ni  9.836293  2.685706  0.868155
Ni 13.500294  4.526122  2.697174
Ni 13.496538  8.207656  2.682585
Ni 13.554702  2.719674  0.895845
Ni  2.650731  8.144717  2.711923
Ni  4.453517  6.341989  2.725160
Ni  4.464447  8.164088  0.937847
Ni  2.639965  6.323905  0.917895
Ni  6.311585  8.136748  2.752337
Al  9.727613 13.583893 11.723783
Ni  9.879887  6.404851  0.866726
Ni  6.270108  6.376107  0.912993
Ni  9.867460  8.207182  2.700916
Al 11.705879  1.009320 11.702770
Al  6.077823  0.816901  2.617905
Al  6.366284 13.558085 11.727925
Ni 13.497633  9.973898  4.511717
Ni 11.703629  8.159529  0.855680
Ni  2.627779 11.741165  2.734196
Ni  4.428489  9.941117  2.747078
Al  6.108750 10.097094 11.702367
Ni  2.591402  9.939365  0.913717
Al  8.098364  0.866095  0.826191
Ni  8.068925 10.039337  2.721327
Al  4.332066 13.656061 13.525103
Ni  6.222073  9.988783  0.891287
Ni  9.882602 11.747812  2.672370
Ni 13.519997  9.951243  0.862208
Ni 11.691762 11.769761  0.823584
Al 13.603292 11.767929 13.590210
Ni 13.482931 11.784426  2.668940
Al 11.714578 11.806994 11.725727
Ni  2.650399  0.927819  2.709572
Ni  4.366329 13.529193  2.680161
Ni  4.384931  0.912394  0.869126
Ni  2.587045 13.572864  0.886846
Ni  6.186431 13.497797  0.858529
Ni  8.034240 13.504702  2.624612
Ni  6.185636 11.772840 13.556375
Ni  8.043041 13.548573 13.549997
Ni  9.869033  0.853382  2.655859
Ni 13.516150 13.596862  0.870958
Al  8.056583  8.275438  0.942857
Ni  9.892819 13.552020  0.822764
Ni 13.491929  0.865162  2.664928
Ni 11.733120 13.617454 13.478631
Ni  2.673414  4.519686  6.353134
Al  6.112837  8.114766 13.513462
Ni  4.425634  4.554624  4.537296
Ni  2.625609  2.722225  4.526961
Ni  6.202577  4.530488  6.333097
Ni  8.049312  2.691860  6.268479
Ni  8.086677  4.529359  4.493401
Al  2.636406 10.102566 11.698107
Ni  9.907241  4.494657  6.273923
Ni 11.724247  2.681208  6.292609
Al 13.657427  4.491913 13.527936
Ni  9.832618  2.644477  4.480606
Al  9.965177  8.170110 13.425207
Ni 13.554486  2.691314  4.475449
Ni  2.662357  8.176699  6.401838
Al  8.051900  4.541811 11.898341
Ni  4.458614  8.140235  4.538745
Ni  2.642088  6.357500  4.536264
Ni  6.232617  8.153073  6.341705
Ni  8.066858  6.352788  6.294828
Al  2.631621  6.185038 11.727275
Al  2.671410  8.133357 13.661244
Ni  9.884652  8.190730  6.337765
Ni  9.867647  6.347629  4.499970
Ni 11.678103  8.162269  4.496853
Ni 11.674907  6.344717  2.706881
Ni 13.523869  8.100594  6.320921
Al 11.799885  0.964421  8.240020
Ni  2.612766 11.824058  6.272832
Ni  4.434178  9.949657  6.345391
Ni  4.425279 11.760195  4.534742
Ni  2.612765  9.942591  4.551221
Ni  6.257265 11.807093  6.282131
Ni  8.096265 10.020555  6.351144
Al  4.436817 13.554394  9.828841
Ni  6.257168  9.972432  4.548804
Ni  9.897338 13.557776  4.511111
Al  2.549732  0.998568  9.913839
Al 11.655778  9.939975  9.836000
Ni  9.933255 10.038798  4.583851
Ni 13.500434 11.799392  6.349665
Al  8.133918 10.029244  9.809661
Ni 11.694167 11.787798  4.544409
Al  2.580362 10.099848  8.021026
Ni  4.415176 13.619563  6.302165
Ni  4.432203  0.939172  4.510343
Ni  2.592371 13.581754  4.497771
Ni  6.253945  0.936734  6.242622
Ni  8.078129 13.599662  6.307291
Al 13.667382  8.102749  9.941015
Ni  6.230950 13.573240  4.481302
Al 11.564084  6.386462  9.906677
Ni 11.759918 13.632090  6.344040
Ni 11.697421  0.892538  4.462766
Al  8.093125  6.365182  9.847799
Ni 13.536763  0.917002  6.322812
Al  5.999224  8.146592  9.761833
Al  2.735802  8.102810  9.760711
Ni  2.619174  4.464539  9.936602
Ni  4.465316  2.675880  9.939765
Al 13.691260  4.476497  9.942909
Ni  2.608158  2.713108  8.103323
Ni  6.352272  4.520191  9.964598
Ni  6.275117  2.699879 11.743996
Ni  8.079404  4.498469  8.084288
Ni  6.248666  2.707660  8.099669
Al 13.515703  8.191947 13.443957
Al 11.632045  6.446798  6.327813
Al 11.583382  4.371585  8.119508
Ni  9.857248  2.647362  8.102272
Al  8.036139  2.656211  9.873830
Al  4.464018  4.483860  8.286554
Ni 13.586143  2.724239  8.134842
Al 13.536438 13.571893  4.487589
Ni  4.427814  6.281485  9.912969
Ni  2.618137  6.292729  8.132447
Ni  8.022582  8.170011  8.114169
Al 11.635187 13.478581  2.661055
Ni  9.917204 10.000607  8.081033
Ni  6.230811  6.316490  8.100136
Ni  7.935743  8.227011 11.627715
Al  9.921174  0.894984  6.313166
Al  8.083623  0.808097  4.418340
Ni  9.863845  6.321528  8.083978
Ni 13.491441  6.240146  8.129494
Ni 11.732868  8.132216  8.164761
Ni  2.615673 11.824388  9.879482
Ni  4.368497 10.017895  9.844881
Ni  4.433388 11.808366  8.042500
Al  2.530813  0.842513  6.302864
Ni  6.248810 11.792018  9.878480
Ni  8.078910 11.827453  8.079842
Ni  6.228545  9.998498  8.105743
Ni  9.901958 11.806773  9.911465
Ni  9.837132  8.177465  9.912070
Ni 11.736203 11.810716  8.158230
Al  9.948055 11.892547  6.422866
Ni 13.518159 11.772087  9.957079
Ni 13.549430  9.949998  8.173005
Al 11.800248  9.908486  6.358913
Al  8.087128 11.792132  4.524320
Ni  4.401254  0.924257  8.094736
Ni  2.577502 13.588626  8.117332
Ni  6.238840  0.881105  9.907515
Ni  8.049904 13.585601  9.891975
Ni  8.061842  0.911104  8.083034
Ni  6.239579 13.597264  8.082827
Ni  9.882285  0.925326  9.943717
Ni 11.707890 13.610131  9.998062
Al 13.625672  6.426751  4.387293
Ni  9.932589 13.656731  8.150725
Ni 13.568286  0.953204  9.987128
Ni 13.550317 13.609738  8.183738
Ni  2.664496  4.505156 13.553619
Ni  4.450336  2.698868 13.525910
Ni  4.481210  4.488998 11.714785
Ni  2.616595  2.729058 11.743740
Ni  6.229884  4.565791 13.563754
Ni  8.018503  2.705413 13.571003
Ni  9.795910  4.514435  9.952105
Ni  6.220047  0.876598 13.562094
Ni  9.874339  4.560264 13.578921
Ni 11.739143  2.722174 13.552875
Ni 11.710084  2.777439  9.961428
Ni  9.809812  2.714134 11.750186
Ni 13.518504  6.270121 11.699440
Ni 13.587506  2.744073 11.760486
Al  6.233060  6.286680  4.523389
Ni  4.415019  6.320945 13.543274
Ni  4.323541  8.152470 11.701442
Al  8.133304  8.286395  4.564473
Ni  8.018801  9.891937 13.492881
Al  4.368046  6.421548  6.404036
Al 13.653209  4.427117  6.319606
Ni  6.240923  6.368680 11.696973
Ni  9.903615  9.946720  0.828640
Ni 11.777833  6.300226 13.573173
Ni 11.736156  8.144026 11.660190
Ni  9.833468  6.358966 11.744952
Al 11.608800  4.411725  4.408579
Ni  2.622209 11.793911 13.539115
Ni  4.380844  9.968135 13.526381
Ni  4.426855 11.886033 11.717813
Al  6.269012  2.842768  4.453646
Al  4.422243  2.707690  6.325113
Al 11.640616  0.965266  0.837885
Ni  8.045412 11.723920 11.725045
Ni  8.042750  6.467956 13.557388
Ni  9.898781 11.747365 13.482530
Ni 11.740303  9.979639 13.484911
Ni  9.884887  9.982599 11.680475
Al 11.699184  9.991594  2.700300
Ni 13.540412  9.984524 11.684247
Ni  2.611341  0.951818 13.525201
Al  8.111715 11.723522  0.803584
Ni  4.446502  0.869661 11.696033
Ni  2.593901 13.607431 11.682154
Al  6.158507 11.761360  2.751186
Al  4.317698 11.685512  0.888531
Ni  8.051760  0.932924 11.747883
Al 11.600646  4.468166  0.928345
Al 11.574300  4.457734 11.790455
Ni  9.891162  0.907399 13.504714
Al 13.595488  6.399983  1.028883
Al  8.151884  6.252564  2.656471
Ni 13.572752 13.589417 11.757212
%ENDBLOCK POSITIONS_ABS

FIX_ALL_CELL: TRUE
KPOINT_MP_GRID: 1 1 1
