#######################################################
#CASTEP cell file: /home/u2093113/Documents/kART/barriers/CASTEP/castep.cell
#Created using the Atomic Simulation Environment (ASE)#
#######################################################

%BLOCK LATTICE_CART
14.464828  0.000000  0.000000
 0.000000 14.464828  0.000000
 0.000000  0.000000 14.464828
%ENDBLOCK LATTICE_CART

%BLOCK POSITIONS_ABS
Ni  8.191805  6.245429  2.758700
Ni 10.039180  4.458797  2.726231
Ni 10.017730  6.274888  0.931487
Al  8.242153  4.464166  0.941071
Ni 11.833353  6.276512  2.718680
Ni 13.637901  4.475946  2.711127
Ni 13.632024  6.282733  0.905986
Al 11.831520  4.478779  0.906417
Ni  8.161941  9.947643  2.773465
Ni 10.021216  8.086784  2.727507
Ni 10.022047  9.875743  0.925474
Al  8.228765  8.081686  0.961443
Ni 11.842326  9.885361  2.713289
Ni 13.633631  8.082730  2.714540
Ni 13.635990  9.880604  0.903967
Al 11.822832  8.076967  0.913771
Ni  8.234090 13.492478  2.679036
Ni 10.062674 11.703439  2.698251
Ni 10.065721 13.515890  0.886062
Al  8.315228 11.705773  0.863124
Ni 11.863024 13.507577  2.696096
Ni 13.640272 11.691747  2.705880
Ni 13.645602 13.501414  0.896466
Al 11.842990 11.686374  0.896197
Ni  8.227330  2.649458  2.715415
Ni 10.068918  0.847954  2.688970
Ni 10.040125  2.668562  0.902472
Al  8.271352  0.856043  0.908133
Ni 11.851359  2.663382  2.704405
Ni 13.646591  0.853231  2.702895
Ni 13.642929  2.672548  0.900203
Al 11.854694  0.860910  0.890280
Ni  8.226844  6.252056  6.331572
Ni 10.052264  4.435279  6.314316
Ni 10.044419  6.251545  4.531205
Al  8.242389  4.428001  4.529852
Ni 11.836946  6.276354  6.330113
Ni 13.636674  4.473164  6.336468
Ni 13.632421  6.280858  4.524839
Al 11.849362  4.460705  4.521127
Ni  8.166948  9.972417  6.264147
Ni 10.036966  8.103348  6.316401
Ni 10.041903  9.903250  4.519817
Al  8.293895  8.028562  4.521674
Ni 11.847065  9.897978  6.328936
Ni 13.631659  8.086755  6.334603
Ni 13.639768  9.889621  4.522172
Al 11.833870  8.084646  4.522199
Ni  8.226749 13.529982  6.368246
Ni 10.061584 11.720123  6.341285
Ni 10.093349 13.527489  4.516220
Al  8.355590 11.788603  4.523210
Ni 11.870664 13.506601  6.340915
Ni 13.645406 11.694947  6.337400
Ni 13.646086 13.503396  4.518888
Al 11.856113 11.701442  4.518706
Ni  8.242032  2.565671  6.328962
Ni 10.070519  0.830885  6.339436
Ni 10.061536  2.639608  4.516670
Al  8.313147  0.825357  4.465917
Ni 11.861856  2.649022  6.329658
Ni 13.653767  0.848581  6.338360
Ni 13.646290  2.661637  4.519655
Al 11.867721  0.851448  4.515464
Ni  8.185236  6.281434  9.842409
Ni 10.042670  4.479985  9.946856
Ni 10.035507  6.276947  8.118149
Al  8.329300  4.380889  8.106434
Ni 11.828356  6.286292  9.948005
Ni 13.637774  4.483860  9.955186
Ni 13.632709  6.284727  8.144038
Al 11.841661  4.472667  8.141216
Ni  8.203854  9.891349  9.961567
Ni 10.017133  8.083791  9.940372
Ni 10.044247  9.907426  8.129767
Al  8.291655  8.160401  8.096561
Ni 11.836368  9.877640  9.957652
Ni 13.633435  8.083405  9.952311
Ni 13.636013  9.886758  8.147841
Al 11.828297  8.088235  8.136913
Ni  8.253601 13.496511  9.988753
Ni 10.058828 11.686325  9.981917
Ni 10.087483 13.502185  8.168899
Al  8.319861 11.710382  8.188144
Ni 11.865356 13.496623  9.974944
Ni 13.644996 11.685809  9.961756
Ni 13.650865 13.500276  8.155657
Al 11.854011 11.693357  8.155595
Ni  8.259331  2.655569  9.963471
Ni 10.091761  0.848160  9.990717
Ni 10.093684  2.639543  8.148494
Al  8.355719  0.837100  8.233135
Ni 11.856840  2.673712  9.969500
Ni 13.649306  0.852832  9.964587
Ni 13.639387  2.665344  8.150649
Al 11.868702  0.844888  8.158456
Ni  8.206250  6.281036 13.600620
Ni 10.016591  4.480709 13.573491
Ni  9.993246  6.288327 11.743787
Al  8.259626  4.483392 11.745404
Ni 11.816761  6.282910 13.566810
Ni 13.637485  4.485085 13.563584
Ni 13.633589  6.285684 11.759368
Al 11.826212  4.491473 11.763670
Ni  8.209979  9.885556 13.577186
Ni 10.006819  8.075390 13.579754
Ni 10.023328  9.868986 11.764437
Al  8.221245  8.075674 11.756591
Ni 11.829290  9.869359 13.569728
Ni 13.632644  8.079183 13.566583
Ni 13.637422  9.876219 11.763022
Al 11.819104  8.073841 11.760673
Ni  8.232158 13.516542 13.550841
Ni 10.053558 11.686276 13.553872
Ni 10.061735 13.500438 11.774190
Al  8.249493 11.688747 11.772236
Ni 11.855655 13.505398 13.561196
Ni 13.640082 11.684624 13.565025
Ni 13.652219 13.499677 11.766278
Al 11.849228 11.679092 11.769081
Ni  8.217342  2.658647 13.564937
Ni 10.046961  0.861839 13.559467
Ni 10.046712  2.676858 11.770569
Al  8.275328  0.852441 11.752657
Ni 11.843665  2.678950 13.565032
Ni 13.650912  0.857082 13.562651
Ni 13.646828  2.677145 11.764074
Al 11.860203  0.859315 11.775601
Ni  1.053465  6.236669  2.701953
Ni  2.776309  4.432670  2.701083
Al  4.756936  2.650503 13.518817
Ni  0.939015  4.431319  0.870387
Ni  4.515389  6.254546  2.719260
Ni  6.397219  4.440303  2.757652
Ni  4.585900  8.065506  0.914617
Ni  4.630762  4.415566  0.907177
Al  0.811061  0.843630 11.693145
Ni  0.955116  8.107360  0.838110
Ni  0.942664  9.950259  2.702722
Al  2.784799  2.757753 11.644662
Ni  4.557876  9.910153  2.666929
Ni  6.390820  8.063776  2.743965
Ni  6.428521  9.922113  0.960587
Ni  2.752036  9.929638  0.892226
Ni  0.948717 13.518100  2.677339
Ni  4.582535 11.758075  0.901622
Ni  2.750711 13.549608  0.830295
Al  4.656067 13.534502 13.584706
Ni  4.542963 13.583127  2.671806
Ni  4.606162 11.746420  4.483498
Ni  6.436209 13.540122  0.892453
Al  2.788307 13.451931 11.648923
Ni  0.945355  2.619210  2.666808
Ni  4.570865  0.900287  0.861419
Ni  0.965022  0.852201  0.808223
Ni  4.553703  2.601813  2.691760
Ni  6.415527  0.827950  2.709027
Ni  6.437395  2.648833  0.927016
Ni  2.794176  0.894998 13.431490
Ni  0.949172  6.232377  6.328622
Ni  2.773382  4.359008  6.333520
Al  4.607793  9.974664 13.656605
Ni  0.925111  4.399664  4.515553
Al  1.081696  9.940729 13.447302
Ni  6.459401  4.377894  6.303345
Ni  6.340189  6.254359  4.595970
Ni  4.615208  4.407199  4.538990
Ni  1.016250  9.920505  6.365816
Ni  2.770772  8.064523  6.264485
Ni  2.768559  9.914568  4.496021
Ni  0.959227  8.079982  4.508016
Ni  4.571286  9.873800  6.337436
Ni  6.426183  8.112062  6.278081
Al  2.854801  2.699930  8.274187
Ni  4.538008  8.023889  4.504473
Ni  0.952081  0.863079  4.524017
Al  0.958845 11.673994  8.187147
Ni  1.003502 11.790315  4.573933
Ni  4.557693 13.574591  6.364848
Ni  6.429461 13.548552  4.539272
Ni  2.765158 13.567961  4.526851
Al  4.710491  9.917064  9.957758
Al  2.791732  9.693669  8.150207
Ni  2.805701  0.919899  6.379229
Ni  2.752035  2.628698  4.488778
Ni  4.600103  2.612131  6.352509
Ni  6.423631  2.574953  4.530903
Al  4.701815  6.185568  9.950432
Al  4.738453  8.042266 11.851072
Al  2.868950  6.250726  7.914102
Al  0.953945  6.293991  9.902249
Ni  0.938268  4.468245  8.144933
Ni  6.491803  4.469526  9.879238
Ni  4.647748  4.470643  8.082516
Al  4.598458  0.865831  4.508113
Al  6.379786  0.821355  6.436752
Al  2.689486  0.786327  2.672094
Ni  0.960911  9.823955  9.957570
Al  0.957956  2.639616  6.379068
Ni  0.938643  8.047612  8.144437
Ni  2.861233  7.942939  9.986211
Ni  6.435416  8.059309  9.901567
Ni  6.433058  9.916768  8.101145
Ni  4.640475  8.036247  8.122129
Al  6.277369 11.799745  6.362589
Ni  0.935645 13.484039  9.940483
Ni  2.791890 11.620730  9.904478
Ni  2.766178 13.504316  8.177692
Al  1.011131 13.678501  6.391379
Ni  4.603937 13.483094  9.962957
Ni  6.450216 11.712579  9.930396
Ni  6.432495 13.508469  8.177957
Ni  4.569931 11.673387  8.153504
Al  2.903084 11.715502  6.246492
Ni  0.938507  2.693699  9.929916
Ni  2.764680  0.860026 10.002268
Al  6.258215  9.816774  4.499106
Ni  0.975594  0.893147  8.194338
Ni  4.636122  2.704723  9.969578
Ni  6.455867  0.840555  9.940444
Ni  6.446104  2.630207  8.155957
Ni  4.601380  0.860789  8.215973
Ni  0.958327  6.243324 13.537704
Ni  2.814997  4.385512 13.538033
Ni  2.790970  4.585191  9.912403
Ni  0.919723  4.475590 11.691602
Ni  4.632027  6.246592 13.578884
Ni  6.473076  4.465783 13.584349
Ni  6.469084  6.259372 11.755709
Ni  4.674524  4.472716 11.757826
Al  6.328146  6.256657  7.892020
Ni  0.971520 11.729809  0.839247
Ni  2.808984  8.080407 13.569983
Ni  2.883739  9.842636 11.720341
Ni  0.958729  8.056319 11.739922
Al  2.797856  6.155774  4.621673
Ni  6.395110  6.252360  0.959912
Ni  6.416405  9.888977 11.785281
Ni  6.433567  8.095306 13.641282
Al  2.709737  2.704365  0.842995
Ni  0.986050 13.492927 13.457243
Ni  2.819738 11.736968 13.518424
Al  6.285434 11.817616  2.678876
Ni  0.962277 11.677243 11.691516
Al  2.773916 11.749960  2.708478
Ni  6.437014 11.716111 13.598534
Ni  6.432914 13.512513 11.754670
Ni  4.648435 11.706245 11.761729
Al  2.778483  6.169069  0.820857
Al  2.766359  6.182703 11.891863
Ni  0.959867  2.659869 13.466358
Al  2.733586  8.175688  2.693729
Ni  4.636074  0.853556 11.731039
Ni  6.457145  0.847241 13.557294
Ni  6.463324  2.666314 11.722408
%ENDBLOCK POSITIONS_ABS

FIX_ALL_CELL: TRUE
KPOINT_MP_GRID: 1 1 1
