#######################################################
#CASTEP cell file: /home/u2093113/Documents/kART/barriers/CASTEP/castep.cell
#Created using the Atomic Simulation Environment (ASE)#
#######################################################

%BLOCK LATTICE_CART
14.464828  0.000000  0.000000
 0.000000 14.464828  0.000000
 0.000000  0.000000 14.464828
%ENDBLOCK LATTICE_CART

%BLOCK POSITIONS_ABS
Ni 13.611042  2.696933 11.809502
Al 13.649801  0.899297 10.006782
Ni 13.608597  6.417874 11.783649
Al 13.634683  4.538946 10.004896
Ni 13.611849  9.904884 11.775453
Al 13.703956  8.149667  9.921049
Ni 13.619807 13.543002 11.790972
Al 13.656884 11.740406  9.991609
Ni 11.844868  2.705381  2.730155
Al 13.630045  0.871589 13.600808
Ni 13.583560  6.383297  0.962395
Al 13.625093  4.550186 13.600579
Ni 13.590934  9.943980  0.982887
Al 13.731488  8.171975 13.623097
Ni 13.608465 13.500410  0.958749
Al 13.682090 11.726290 13.558198
Ni 13.616392  2.720259  4.544680
Al 13.662584  0.889530  2.740281
Ni 13.605821  6.318049  4.564576
Al 13.640666  4.533963  2.720233
Ni 13.634843  9.932185  4.589638
Al 13.691612  8.137736  2.807028
Ni 13.644689 13.568519  4.570897
Al 13.727038 11.742530  2.839379
Ni 13.603423  2.726449  8.203484
Al 13.676434  0.906272  6.372315
Ni 13.615483  6.325951  8.171551
Al 13.650886  4.521176  6.385944
Ni 13.621563  9.954079  8.153574
Al 13.655220  8.132833  6.368055
Ni 13.614887 13.548735  8.179716
Al 13.665965 11.753770  6.356765
Ni  0.902778  0.904930 11.794192
Ni  0.902204  2.687799  9.993885
Ni  2.744896  2.708633 11.730399
Ni  4.472341  0.803309 11.738229
Ni  4.538464  2.684373  9.922311
Ni  2.692956  0.856139  9.974466
Ni  6.303108  2.643145 11.735118
Ni  8.139874  0.823782 11.740367
Al 10.143645 13.580545  8.121412
Ni  6.298229  0.852358  9.929144
Ni  9.958918  2.679461 11.784721
Ni 11.813488  0.858679 11.803570
Ni  9.968257  6.380415 11.765362
Ni 10.010786  0.885535  9.967720
Ni  0.915467  4.508904 11.820089
Ni  0.893078  6.337365 10.058206
Ni  2.791732  6.335329 11.812638
Al  6.191171 11.716045  6.339003
Ni  6.363075  4.571772  9.962004
Ni  2.715695  4.547883 10.017459
Ni  6.329641  6.398412 11.748394
Al  8.153545 13.662616  6.298933
Al  2.547990 13.447667 11.696996
Al  2.815864 11.715593  6.367526
Ni  9.973601  8.167233 13.565739
Ni 11.872264  4.562116 11.801608
Ni 11.819642  6.379700  9.979745
Ni  8.195384  6.334291  9.963846
Ni  0.889421  8.139262 11.822367
Al  2.491752  8.232921  6.378399
Al  4.562531 13.501778  9.878555
Ni  4.538648  8.242526 11.762475
Al  0.768214 11.848935  8.145636
Ni  2.668174  8.174515  9.951308
Ni  6.348932  9.953099 11.725935
Ni  9.994942  8.145029  9.954726
Ni  8.176134  9.969474  9.907998
Al 10.061130  9.954085  8.196674
Ni  9.955864  9.996287 11.747422
Ni 11.828349  6.409755 13.599795
Ni 11.828696  9.948304  9.975386
Al  8.194959  9.897133  6.266997
Ni  0.822486 11.717593 11.768606
Ni  0.837846 13.557283  9.955497
Ni  2.638906 11.685971  9.927779
Ni  4.497357 11.677650 11.666605
Ni  2.597173  9.952403  8.191457
Ni  4.504472 11.713662  8.159129
Ni  6.326170 13.491459 11.720396
Ni  9.977292 11.797791  9.932803
Al  4.523557  6.522928  9.941823
Ni  6.362385 11.731994  9.877670
Ni  9.949672 13.512812 11.749708
Ni 11.805557 11.726625 11.791179
Ni 11.830980 13.548122  9.993552
Ni  8.199851 11.777009  8.052467
Al  2.515743  6.281528  8.191637
Ni  0.904558  2.702590 13.594206
Ni  2.696998  2.719799  0.941984
Ni  4.509751  0.870895  0.911609
Ni  4.557878  2.697962 13.556739
Ni  6.345045  2.676610  0.906477
Ni  8.158719  0.882917  0.955945
Al 10.118362  2.656927  8.153250
Ni  6.277318  0.802211 13.574523
Al  6.491102  6.327259  8.092924
Ni 11.846505  0.848942  0.938695
Ni 11.799470  2.692862 13.580040
Ni 10.001069  0.863444 13.576752
Al  4.500375  2.743378  6.540890
Ni  0.931074  6.329638 13.587242
Ni  2.742597  6.336933  0.873246
Ni  4.546254  4.549004  0.900044
Ni  6.398245  6.403060  0.973474
Ni  6.300026  4.531591 13.544561
Ni  8.129630  6.344464 13.546603
Ni  8.136978  4.503791 11.797556
Ni  9.925365  6.267371  0.931209
Ni 13.591788  2.710275  0.923759
Al  8.235717 13.618732  2.896566
Ni 11.787968  4.536606  0.900832
Ni  0.911157  8.150265  0.938785
Ni  0.894681  9.948752 13.610661
Ni  2.729832  9.983139  0.907445
Ni  4.588866  8.221002  0.950425
Al  0.895971 11.723733  4.461435
Ni  2.739986  8.177798 13.598928
Ni  6.356633 11.764057 13.579508
Al  6.333165  8.158319  2.802185
Ni  6.398510  8.245045 13.625115
Ni  9.955140  9.994622  0.980817
Al  4.470666  8.136601  4.599514
Ni 11.810152  9.967583 13.629765
Ni  8.166152 10.011921 13.592866
Ni  0.888041 11.783238  0.942757
Ni  0.903999 13.582838 13.612768
Ni  2.719063 13.573234  0.887962
Ni  4.530617 11.773110  0.947319
Al 10.088728  6.259085  4.659018
Ni  2.695228 11.751128 13.564306
Al  8.169589  6.227958  2.859259
Ni  8.217232 11.825707  0.985672
Ni  8.149100 13.550907 13.567338
Al  4.474938  4.650245  4.539921
Ni  9.975854 13.580361  0.978254
Al  1.047429  6.372680  2.733713
Ni 11.805469 13.498638 13.611816
Ni  0.933315  0.877160  4.559123
Al 10.130101  2.718233  4.571783
Ni  2.815080  2.736243  4.607044
Ni  2.727480  0.890227  6.369119
Ni  4.531837  2.727468  2.731600
Ni  2.715265  0.907697  2.735631
Al  9.990901  6.363356  8.094563
Al  8.052430  4.551289  0.835063
Al  8.005803  2.651538  2.804111
Ni  6.302222  0.861084  2.754217
Al  4.477728  0.847357  4.512123
Ni 11.872871  0.901539  4.553751
Al  0.953001  2.729996  2.920416
Ni 10.012684  0.938470  2.786453
Al  9.992961 11.779953 13.586930
Ni  0.924015  4.546174  4.571029
Al 11.748845 11.740831  1.057648
Ni  2.678458  6.393622  4.632338
Al  8.103421 11.691510 11.731751
Ni  4.501077  6.375166  2.729987
Ni  2.714147  4.539395  2.720166
Ni  6.304387  6.333470  4.592948
Al  6.369373 13.536444  0.969987
Al  4.544353 13.433831 13.510056
Ni  6.309965  4.539319  2.739774
Ni  8.156970  4.431870  4.571100
Ni 11.851143  4.516722  4.539366
Ni 11.782743  6.321100  2.743269
Ni  9.952707  4.440112  2.720554
Ni  0.813929  8.158000  4.507191
Ni  0.897849  9.950955  2.692050
Ni  2.693080  9.948954  4.549463
Al 11.643558  8.154023  0.955516
Ni  4.552202  9.958433  2.743073
Ni  2.732460  8.182677  2.741976
Ni  6.320297  9.928136  4.579760
Ni  8.182131  8.080151  4.543006
Ni  8.160900  9.943534  2.795772
Al  6.412328 10.133257  0.988148
Ni  9.998772  9.932980  4.568084
Ni 11.829194  8.126876  4.543925
Ni 11.808349  9.927749  2.780259
Ni  9.963830  8.085740  2.785890
Al  8.290452  8.153586  0.863441
Al  4.548649  9.995251 13.577000
Ni  0.875757 13.565890  2.728688
Ni  2.696721 13.521819  4.541672
Ni  4.494693 11.730133  4.557208
Ni  4.519879 13.548320  2.734581
Ni  2.709910 11.744441  2.732246
Ni  6.326243 13.567141  4.579353
Ni  8.152684 11.767386  4.628683
Al 10.086027  4.586968 13.459058
Ni  6.376999 11.798510  2.807083
Ni 10.011703 13.604048  4.613736
Ni 11.842286 11.748053  4.544521
Ni 11.815987 13.557232  2.785902
Ni  9.984388 11.777008  2.825945
Ni  0.902110  0.878783  8.148471
Ni  0.941591  2.690902  6.341839
Ni  2.676627  2.734469  8.211738
Ni  4.478812  0.882440  8.177470
Ni  6.192641  2.740042  4.597630
Ni  2.673044 13.518439  8.171071
Ni  6.344200  2.745215  8.195029
Ni  8.194377  0.922065  8.135999
Ni  8.146072  0.997579  4.589741
Ni  6.265279  0.921390  6.363040
Ni 10.026681  4.443237  6.390699
Ni 11.881152  0.894872  8.183267
Ni 11.882331  2.710254  6.372690
Ni 10.034763  0.953432  6.359135
Al  2.744991  4.464449 13.549811
Ni  0.847617  4.487371  8.202181
Ni  0.733340  6.321458  6.372737
Al  4.630961  6.487637 13.622498
Ni  4.451215  6.494781  6.525861
Al  0.843876  4.504243  0.876052
Al 10.086439  2.599549  0.950225
Ni  2.702090  4.556806  6.402785
Ni  6.388365  8.142321  9.889842
Ni  8.256570  4.457548  8.233832
Ni  8.210589  6.270171  6.322466
Ni  6.278050  4.556013  6.389793
Al  8.044375  2.548285 13.473101
Ni 11.813052  2.699550 10.023011
Ni 11.840568  6.317641  6.384150
Ni 11.797861  4.537642  8.229975
Ni  0.795278  8.145359  8.183912
Ni  0.853629 10.059742  6.352630
Al  2.747380  1.002918 13.543198
Al  0.902429  0.908551  0.965482
Al  8.102335 13.611364  9.881089
Ni  4.476990  9.806054  6.469611
Ni  4.504404  4.628543  8.239579
Ni  6.407966  9.920912  8.085193
Ni  8.227828  8.155281  8.121049
Al 11.689808  8.200548 11.796758
Ni  6.361838  8.128862  6.349808
Al  8.173366  8.191487 11.771466
Ni 11.829187  8.148172  8.172186
Ni 11.825544  9.952314  6.353615
Ni 10.037327  8.149757  6.346539
Al  4.573419  9.859854  9.794902
Ni  0.898166 13.521830  6.313894
Al  2.627605  9.958899 11.798476
Al  0.746624  9.885775  9.984185
Ni  4.510320 13.568382  6.370646
Al  8.064734  2.623610 10.019182
Al  8.023924  2.718299  6.374205
Ni  6.358981 13.544191  8.089359
Al 10.065299  4.555681 10.128464
Al  4.621154  4.454126 11.679389
Ni 10.029889 11.752408  6.353472
Ni 11.846687 11.745058  8.171767
Ni 11.852932 13.559593  6.342059
%ENDBLOCK POSITIONS_ABS

FIX_ALL_CELL: TRUE
KPOINT_MP_GRID: 1 1 1
