#######################################################
#CASTEP cell file: /home/u2093113/Documents/kART/barriers/CASTEP/castep.cell
#Created using the Atomic Simulation Environment (ASE)#
#######################################################

%BLOCK LATTICE_CART
14.464828  0.000000  0.000000
 0.000000 14.464828  0.000000
 0.000000  0.000000 14.464828
%ENDBLOCK LATTICE_CART

%BLOCK POSITIONS_ABS
Ni  8.212070  6.243549 13.561427
Ni 10.036017  4.453254 13.568194
Ni 10.027754  6.269962 11.765284
Al  8.247199  4.454498 11.765987
Ni 11.827259  6.270698 13.568108
Ni 13.633960  4.468769 13.562181
Ni 13.632523  6.276521 11.758428
Al 11.834302  4.467594 11.756901
Ni  8.150709  9.933404 13.616392
Ni 10.017586  8.082307 13.567160
Ni 10.018686  9.875456 11.771787
Al  8.229868  8.080972 11.779197
Ni 11.836514  9.881992 13.563977
Ni 13.630220  8.077843 13.565071
Ni 13.636635  9.879432 11.757010
Al 11.826441  8.076221 11.763511
Ni  8.215584 13.484086 13.537548
Ni 10.047905 11.695720 13.551818
Ni 10.053709 13.508700 11.743386
Al  8.301480 11.697160 11.711897
Ni 11.852658 13.501944 13.551569
Ni 13.637518 11.687889 13.558368
Ni 13.644193 13.495967 11.750966
Al 11.838747 11.685005 11.751940
Ni  8.219378  2.651815 13.561691
Ni 10.053476  0.842901 13.545837
Ni 10.037783  2.655886 11.752080
Al  8.260872  0.847534 11.761458
Ni 11.844263  2.655217 13.557568
Ni 13.643111  0.846070 13.556057
Ni 13.642383  2.661859 11.754073
Al 11.849442  0.850222 11.747284
Ni  8.194532  6.248178  2.769496
Ni 10.042989  4.438069  2.707589
Ni 10.028656  6.244237  0.920177
Al  8.236743  4.436791  0.915611
Ni 11.835351  6.269193  2.713887
Ni 13.634539  4.466445  2.717670
Ni 13.628788  6.274745  0.907583
Al 11.840594  4.456986  0.906057
Ni  8.156489  9.941129  2.654885
Ni 10.034447  8.089457  2.707231
Ni 10.032516  9.890860  0.904575
Al  8.296543  8.013533  0.907848
Ni 11.842415  9.892068  2.709234
Ni 13.627709  8.081169  2.716058
Ni 13.635185  9.884137  0.905226
Al 11.825704  8.076066  0.905260
Ni  8.208793 13.525255  2.749197
Ni 10.049150 11.710923  2.721659
Ni 10.071642 13.521502  0.902847
Al  8.337234 11.766474  0.912380
Ni 11.860426 13.503153  2.718933
Ni 13.641875 11.690897  2.716535
Ni 13.642571 13.498563  0.902591
Al 11.845851 11.696492  0.902685
Ni  8.221706  2.590419  2.722947
Ni 10.052436  0.832783  2.720339
Ni 10.047464  2.643695  0.904479
Al  8.291134  0.835630  0.857493
Ni 11.854803  2.644771  2.711164
Ni 13.650455  0.842917  2.717548
Ni 13.641771  2.655591  0.903370
Al 11.855210  0.846685  0.900910
Ni  8.251720  6.272047  6.287360
Ni 10.066913  4.460597  6.344869
Ni 10.045833  6.269717  4.515925
Al  8.338496  4.376296  4.521178
Ni 11.836288  6.279584  6.337485
Ni 13.637860  4.473790  6.338455
Ni 13.630873  6.278510  4.526976
Al 11.844551  4.463396  4.525273
Ni  8.220023  9.899389  6.352831
Ni 10.039557  8.089561  6.338885
Ni 10.050650  9.905717  4.514295
Al  8.314321  8.157284  4.503812
Ni 11.843176  9.883113  6.341130
Ni 13.633456  8.081045  6.335596
Ni 13.633775  9.884203  4.527574
Al 11.830384  8.084337  4.522030
Ni  8.248951 13.490395  6.362486
Ni 10.061630 11.688810  6.360939
Ni 10.077331 13.499051  4.544087
Al  8.313848 11.699065  4.565356
Ni 11.864522 13.492997  6.352756
Ni 13.646627 11.685180  6.341506
Ni 13.650270 13.495882  4.532881
Al 11.852030 11.693361  4.532044
Ni  8.263653  2.644593  6.356415
Ni 10.089119  0.837787  6.369637
Ni 10.092818  2.632864  4.533774
Al  8.343875  0.841031  4.611599
Ni 11.862931  2.656370  6.352304
Ni 13.652006  0.843314  6.344159
Ni 13.638731  2.656373  4.530086
Al 11.864582  0.837142  4.534998
Ni  8.210966  6.275500  9.970172
Ni 10.029591  4.466834  9.957114
Ni 10.022664  6.280626  8.143721
Al  8.279255  4.465733  8.141903
Ni 11.829908  6.276348  9.954471
Ni 13.641007  4.474086  9.951421
Ni 13.637170  6.279209  8.144882
Al 11.839706  4.474967  8.153847
Ni  8.206515  9.883383  9.949517
Ni 10.021232  8.076886  9.961647
Ni 10.036536  9.877992  8.152592
Al  8.241215  8.077455  8.151037
Ni 11.834852  9.874365  9.958575
Ni 13.636229  8.077675  9.953715
Ni 13.640400  9.878043  8.147892
Al 11.832148  8.076867  8.149927
Ni  8.224086 13.508256  9.937048
Ni 10.049998 11.686413  9.941979
Ni 10.058484 13.494779  8.157073
Al  8.247042 11.687793  8.152849
Ni 11.853243 13.499596  9.951019
Ni 13.642305 11.683694  9.953062
Ni 13.653868 13.494731  8.150080
Al 11.852465 11.682676  8.154213
Ni  8.218208  2.644219  9.944547
Ni 10.043712  0.848162  9.948293
Ni 10.056314  2.656562  8.158664
Al  8.272736  0.840224  8.134625
Ni 11.847830  2.662032  9.954332
Ni 13.652259  0.846933  9.951082
Ni 13.649954  2.663589  8.149255
Al 11.861997  0.845653  8.160028
Ni  1.011008  6.228828 13.481899
Ni  2.757913  4.420017 13.501057
Al  4.755169  2.645360  9.885527
Ni  0.926128  4.414873 11.683233
Ni  4.505464  6.248872 13.530574
Ni  6.401209  4.434956 13.567025
Ni  4.581071  8.059242 11.737604
Ni  4.626462  4.410264 11.728805
Al  0.810959  0.829802  8.068017
Ni  0.945955  8.111585 11.646593
Ni  0.944322  9.945677 13.537610
Al  2.783605  2.746756  8.030662
Ni  4.554263  9.892360 13.510349
Ni  6.392160  8.065414 13.555057
Ni  6.418431  9.909933 11.782512
Ni  2.757671  9.921338 11.710726
Ni  0.962416 13.511435 13.530941
Ni  4.583220 11.737666 11.737304
Ni  2.758267 13.538619 11.680392
Al  4.655906 13.526354  9.963611
Ni  4.543032 13.572220 13.527712
Ni  4.603779 11.717349  0.875436
Ni  6.427223 13.527969 11.747261
Al  2.788899 13.445445  8.019007
Ni  0.944523  2.610560 13.501197
Ni  4.570891  0.893717 11.707861
Ni  0.968388  0.836785 11.653637
Ni  4.548933  2.608562 13.528907
Ni  6.405199  0.834695 13.565917
Ni  6.433725  2.642120 11.760990
Ni  2.795844  0.878890  9.808872
Ni  0.939632  6.224875  2.728634
Ni  2.780992  4.444862  2.732875
Al  4.606583  9.940204  9.988425
Ni  0.904935  4.388884  0.885886
Al  1.082032  9.944845  9.815696
Ni  6.449466  4.443144  2.735068
Ni  6.416975  6.259183  0.877252
Ni  4.608078  4.428282  0.876764
Ni  1.025321  9.890570  2.749164
Ni  2.764522  7.985219  2.663940
Ni  2.768525  9.877868  0.885829
Ni  0.949049  8.072676  0.878234
Ni  4.560914  9.813092  2.735078
Ni  6.424266  8.044993  2.711263
Al  2.862385  2.733682  4.663835
Ni  4.520235  7.998994  0.848436
Ni  0.970704  0.874647  0.911499
Al  0.964049 11.657423  4.560577
Ni  1.017266 11.772478  0.957701
Ni  4.555402 13.565654  2.747040
Ni  6.414121 13.541896  0.928671
Ni  2.773458 13.561031  0.912821
Al  4.703086  9.915626  6.335712
Al  2.784788  9.653928  4.535948
Ni  2.819586  0.933261  2.762399
Ni  2.755061  2.663923  0.878755
Ni  4.591257  2.679951  2.752511
Ni  6.411577  2.613414  0.925800
Al  6.368555  6.259648  4.633911
Al  4.744812  7.941321  8.116162
Al  2.792621  6.260687  4.503119
Al  0.886809  6.287757  6.344932
Ni  0.926946  4.471162  4.553141
Ni  6.484258  4.456400  6.316444
Ni  4.638134  4.533426  4.559370
Al  4.594109  0.889097  0.900442
Al  6.360338  0.840925  2.826894
Al  2.697018  0.790558 13.521963
Ni  0.949707  9.821804  6.344118
Al  0.981546  2.673483  2.765946
Ni  0.910107  8.037578  4.547159
Ni  2.838809  7.932232  6.396924
Ni  6.466447  8.080861  6.314512
Ni  6.429364  9.891154  4.488188
Ni  4.631751  7.984737  4.566194
Al  6.264753 11.771251  2.747727
Ni  0.938535 13.478982  6.307691
Ni  2.788694 11.609114  6.276293
Ni  2.769425 13.498718  4.554044
Al  1.027992 13.674270  2.771339
Ni  4.602352 13.477347  6.332645
Ni  6.448501 11.702130  6.304271
Ni  6.424265 13.502320  4.552560
Ni  4.565675 11.654211  4.530748
Al  2.909659 11.690426  2.631873
Ni  0.936040  2.685897  6.318066
Ni  2.764549  0.859189  6.376989
Al  6.245618  9.765141  0.903386
Ni  0.987977  0.901546  4.566966
Ni  4.631472  2.689226  6.367172
Ni  6.453408  0.837005  6.315996
Ni  6.430412  2.657301  4.553537
Ni  4.596655  0.868768  4.593187
Ni  0.954528  6.237769  9.894206
Ni  2.813405  4.381181  9.898708
Ni  2.797208  4.587286  6.338370
Ni  0.902080  4.457696  8.083250
Ni  4.633871  6.241967  9.940221
Ni  6.471688  4.461308  9.948356
Ni  6.473335  6.244172  8.099531
Ni  4.675534  4.509696  8.101877
Al  4.664152  6.226011  2.610676
Ni  0.979372 11.726417 11.683508
Ni  2.817228  8.066444  9.913449
Ni  2.886049  9.832845  8.091192
Ni  0.936120  8.062927  8.133624
Al  2.657329  6.146375  0.872113
Ni  6.394773  6.249706 11.784572
Ni  6.406219  9.878977  8.160142
Ni  6.419652  8.081720  9.985625
Al  2.707237  2.691133 11.665839
Ni  0.989955 13.483094  9.836386
Ni  2.826458 11.730084  9.888982
Al  6.273105 11.788106 13.534453
Ni  0.962401 11.676637  8.064857
Al  2.781591 11.730334 13.556274
Ni  6.427897 11.707381  9.970202
Ni  6.431614 13.505720  8.128970
Ni  4.646469 11.705271  8.130146
Al  2.768056  6.165218 11.634897
Al  2.785937  6.167354  8.230138
Ni  0.956201  2.638485  9.839072
Al  2.715653  8.178471 13.498125
Ni  4.635269  0.837449  8.109718
Ni  6.453137  0.836004  9.938788
Ni  6.458894  2.656249  8.108931
%ENDBLOCK POSITIONS_ABS

FIX_ALL_CELL: TRUE
KPOINT_MP_GRID: 1 1 1
