#######################################################
#CASTEP cell file: /home/u2093113/Documents/kART/CASTEP/castep.cell
#Created using the Atomic Simulation Environment (ASE)#
#######################################################

%BLOCK LATTICE_CART
14.464828  0.000000  0.000000
 0.000000 14.464828  0.000000
 0.000000  0.000000 14.464828
%ENDBLOCK LATTICE_CART

%BLOCK POSITIONS_ABS
Al  8.230385  4.448544  0.927546
Al 11.848654  4.461995  0.915606
Al  8.226887  8.095862  0.967553
Al 11.858137  8.086354  0.927693
Al  8.311735 11.698085  0.851193
Al 11.883154 11.687967  0.900295
Al  8.250828  0.853800  0.919091
Al 11.862223  0.853138  0.899406
Al  8.225319  4.430260  4.517332
Al 11.848823  4.473504  4.518036
Al  8.288671  8.001733  4.497613
Al 11.855079  8.074487  4.527458
Al  8.399175 11.803759  4.538487
Al 11.874633 11.681879  4.531170
Al  8.305474  0.823781  4.457172
Al 11.884570  0.863233  4.513784
Al  8.180932  4.472099  8.129784
Al 11.826965  4.488388  8.137725
Al  8.166167  8.058480  8.129835
Al 11.820379  8.070233  8.128867
Al  8.300869 11.706497  8.202377
Al 11.891204 11.670918  8.149832
Al  8.350471  0.831614  8.243161
Al 11.837670  0.852792  8.152440
Al  8.259121  4.460102 11.781429
Al 11.807403  4.485956 11.761865
Al  8.209026  8.081033 11.788998
Al 11.826736  8.080391 11.762500
Al  8.234027 11.693313 11.779976
Al 11.841067 11.668253 11.777896
Al  8.252497  0.845025 11.755215
Al 11.879179  0.842925 11.775249
Al  4.764621  2.654114 13.542906
Al  0.824956  0.870773 11.741818
Al  2.804190  2.758659 11.634029
Al  4.663609 13.541101 13.633859
Al  2.780919 13.411049 11.669777
Al  4.608712  9.988393 13.690416
Al  0.988438  9.875536 13.548983
Al  2.857290  2.700249  8.265959
Al  0.868545 11.665162  8.273264
Al  4.729183  9.970302  9.963033
Al  2.792343  9.652887  8.154967
Al  4.927622  6.195103  9.779088
Al  4.713013  8.026801 11.866290
Al  2.769291  6.273804  8.038183
Al  0.821008  6.267841  9.957770
Al  4.545821  0.852513  4.525383
Al  6.374287  0.843418  6.445010
Al  2.640692  0.784472  2.691938
Al  0.915387  2.673711  6.278977
Al  6.249809 11.797403  6.381059
Al  0.898841 13.641347  6.286791
Al  2.888482 11.700135  6.237727
Al  6.236632  9.790467  4.485413
Al  4.886981  6.225687  6.370392
Al  2.727183  6.151773  4.527534
Al  2.697747  2.716279  0.877284
Al  6.288011 11.821401  2.654155
Al  2.762980 11.713972  2.709792
Al  2.800467  6.177382  0.822217
Al  2.760760  6.169262 11.927766
Al  2.766955  8.196251  2.689275
Ni  8.215238  6.242705  2.703232
Ni 10.047028  4.455223  2.723117
Ni 10.046925  6.275661  0.939074
Ni 11.860926  6.275295  2.724540
Ni 13.662035  4.478095  2.703195
Ni 13.640520  6.289451  0.913843
Ni  8.176027  9.976601  2.826941
Ni 10.044138  8.086003  2.729271
Ni 10.052329  9.880958  0.939040
Ni 11.867091  9.878037  2.733681
Ni 13.685775  8.076589  2.727042
Ni 13.674648  9.885266  0.924058
Ni  8.250731 13.462907  2.709314
Ni 10.081432 11.694004  2.706439
Ni 10.055420 13.507608  0.904019
Ni 11.870687 13.507276  2.693000
Ni 13.658014 11.687273  2.719312
Ni 13.672333 13.494489  0.890528
Ni  8.229923  2.650438  2.729245
Ni 10.077211  0.847660  2.701560
Ni 10.041097  2.656475  0.910450
Ni 11.855597  2.662372  2.694250
Ni 13.683084  0.857119  2.686721
Ni 13.668087  2.661444  0.899501
Ni  8.162789  6.245867  6.325072
Ni 10.014720  4.466188  6.332421
Ni 10.041089  6.249104  4.519080
Ni 11.823566  6.284547  6.312521
Ni 13.649541  4.492635  6.320642
Ni 13.674898  6.276118  4.511408
Ni  8.170318  9.994742  6.225071
Ni  9.987983  8.081380  6.330684
Ni 10.054414  9.887091  4.531283
Ni 11.849795  9.860122  6.337219
Ni 13.674269  8.076001  6.323618
Ni 13.685151  9.882191  4.541775
Ni  8.239281 13.524171  6.362985
Ni 10.081009 11.700414  6.355405
Ni 10.112165 13.532465  4.528269
Ni 11.889761 13.486503  6.343410
Ni 13.704720 11.673842  6.340661
Ni 13.653118 13.506773  4.495588
Ni  8.245309  2.566319  6.343171
Ni 10.086776  0.833429  6.336306
Ni 10.056751  2.650429  4.529966
Ni 11.849745  2.692204  6.336567
Ni 13.609427  0.887004  6.357344
Ni 13.625031  2.670998  4.482565
Ni  8.167367  6.264936  9.935775
Ni 10.017788  4.479603  9.940670
Ni  9.979132  6.275800  8.130173
Ni 11.838107  6.285212  9.945119
Ni 13.622914  4.445780  9.947769
Ni 13.614925  6.272383  8.096515
Ni  8.203765  9.889235  9.957482
Ni  9.993297  8.074759  9.939597
Ni 10.005243  9.874794  8.124026
Ni 11.816443  9.866835  9.942865
Ni 13.635503  8.103974  9.948175
Ni 13.663025  9.840472  8.144086
Ni  8.260027 13.504204  9.970895
Ni 10.054427 11.678784  9.972757
Ni 10.078163 13.487054  8.152705
Ni 11.855406 13.485703  9.965099
Ni 13.631231 11.654415 10.002276
Ni 13.665492 13.520241  8.167263
Ni  8.268497  2.646343  9.948161
Ni 10.087552  0.840005  9.989322
Ni 10.050835  2.668909  8.138114
Ni 11.826370  2.667767  9.954205
Ni 13.632639  0.872319  9.924856
Ni 13.635792  2.677288  8.157968
Ni  8.238591  6.280970 13.619139
Ni 10.033661  4.467610 13.590206
Ni 10.017029  6.288045 11.763176
Ni 11.818281  6.273183 13.588856
Ni 13.643123  4.480319 13.570143
Ni 13.612204  6.282917 11.799725
Ni  8.228627  9.873316 13.604461
Ni 10.035789  8.084321 13.597150
Ni 10.021820  9.869582 11.769841
Ni 11.858335  9.874100 13.574756
Ni 13.650259  8.066765 13.572171
Ni 13.649941  9.854880 11.742994
Ni  8.242178 13.516131 13.559487
Ni 10.060637 11.681506 13.564675
Ni 10.058940 13.495700 11.772998
Ni 11.847838 13.499558 13.571454
Ni 13.671678 11.701667 13.541593
Ni 13.642360 13.470406 11.751514
Ni  8.228878  2.654299 13.580400
Ni 10.049774  0.850818 13.569323
Ni 10.046002  2.659074 11.772756
Ni 11.846366  2.669108 13.576078
Ni 13.636854  0.842132 13.581533
Ni 13.602638  2.704029 11.758109
Ni  1.011321  6.282458  2.695064
Ni  2.786799  4.436215  2.703949
Ni  0.947337  4.488294  0.886268
Ni  4.551530  6.254870  2.714140
Ni  6.378380  4.430314  2.726082
Ni  4.592809  8.042334  0.925782
Ni  4.635081  4.411308  0.917757
Ni  0.980260  8.053852  0.912000
Ni  0.955911  9.902977  2.714738
Ni  4.605336  9.900542  2.661696
Ni  6.376875  8.047092  2.717182
Ni  6.431225  9.922049  0.960118
Ni  2.751665  9.911314  0.887919
Ni  0.941471 13.476799  2.718371
Ni  4.537305 11.753310  0.911414
Ni  2.748726 13.529614  0.861005
Ni  4.557378 13.598061  2.698001
Ni  4.611189 11.737968  4.479054
Ni  6.433673 13.539690  0.916067
Ni  0.969883  2.674659  2.693564
Ni  4.563747  0.903114  0.903667
Ni  0.986453  0.849422  0.847203
Ni  4.572051  2.611217  2.709475
Ni  6.413216  0.828287  2.692172
Ni  6.421627  2.634511  0.955571
Ni  2.779178  0.891595 13.472441
Ni  0.956502  6.244137  6.307685
Ni  2.825109  4.431982  6.341666
Ni  0.951974  4.446554  4.493292
Ni  6.438789  4.337303  6.301748
Ni  6.406233  6.244176  4.473031
Ni  4.605793  4.424376  4.517820
Ni  1.054144  9.906165  6.369740
Ni  2.823154  7.988216  6.285121
Ni  2.808737  9.887233  4.522421
Ni  1.015885  8.080683  4.523136
Ni  4.585421  9.843008  6.324001
Ni  6.453790  8.118671  6.298522
Ni  4.530154  7.999289  4.503286
Ni  0.930775  0.891620  4.499751
Ni  0.979307 11.688066  4.547766
Ni  4.553725 13.584330  6.357871
Ni  6.406631 13.548426  4.537110
Ni  2.752330 13.539045  4.535265
Ni  2.750090  0.926294  6.392484
Ni  2.784135  2.660859  4.489731
Ni  4.613536  2.643338  6.323464
Ni  6.406329  2.558984  4.521568
Ni  0.967772  4.465878  8.131522
Ni  6.468753  4.367355  9.978600
Ni  4.685357  4.449621  8.118047
Ni  1.022699  9.797253  9.965232
Ni  0.963632  8.016298  8.130891
Ni  2.901632  7.872901 10.041690
Ni  6.393867  8.127282  9.982995
Ni  6.444766  9.913567  8.096374
Ni  4.690677  8.047971  8.108655
Ni  0.959606 13.515125  9.966025
Ni  2.782488 11.613618  9.905801
Ni  2.698218 13.475405  8.097036
Ni  4.594962 13.482095  9.918006
Ni  6.431980 11.733312  9.963681
Ni  6.410348 13.504742  8.183211
Ni  4.517353 11.686007  8.160278
Ni  0.960296  2.715074  9.962239
Ni  2.760304  0.830866 10.010980
Ni  0.980406  0.911362  8.205037
Ni  4.654790  2.661361  9.966970
Ni  6.410068  0.839522  9.953747
Ni  6.426537  2.626555  8.160401
Ni  4.566547  0.835715  8.202106
Ni  0.939834  6.274530 13.584493
Ni  2.820233  4.351460 13.546907
Ni  2.825006  4.677735  9.933681
Ni  0.942842  4.481033 11.762315
Ni  4.650480  6.212823 13.583595
Ni  6.445443  4.486422 13.577745
Ni  6.457143  6.255558 11.783402
Ni  4.673065  4.466193 11.745319
Ni  0.970983 11.716259  0.890566
Ni  2.827588  8.085158 13.559353
Ni  2.893505  9.859544 11.723311
Ni  1.002550  8.047846 11.762037
Ni  6.394030  6.249816  0.938204
Ni  6.395037  9.902573 11.834709
Ni  6.412030  8.067240 13.638749
Ni  0.988227 13.507249 13.512795
Ni  2.768273 11.731176 13.544562
Ni  0.986282 11.641385 11.711720
Ni  6.433161 11.716356 13.598346
Ni  6.420022 13.506236 11.735558
Ni  4.638887 11.749496 11.777263
Ni  0.941552  2.665473 13.521328
Ni  4.631997  0.827750 11.730871
Ni  6.447108  0.839841 13.557604
Ni  6.472178  2.633524 11.739170
%ENDBLOCK POSITIONS_ABS

