#######################################################
#CASTEP cell file: /home/u2093113/Documents/kART/CASTEP/castep.cell
#Created using the Atomic Simulation Environment (ASE)#
#######################################################

%BLOCK LATTICE_CART
14.464828  0.000000  0.000000
 0.000000 14.464828  0.000000
 0.000000  0.000000 14.464828
%ENDBLOCK LATTICE_CART

%BLOCK POSITIONS_ABS
Al  8.216537  4.465064  0.929379
Al 11.843231  4.478688  0.912372
Al  8.214548  8.089028  0.972772
Al 11.855948  8.084334  0.925114
Al  8.305689 11.689039  0.840926
Al 11.878202 11.683920  0.888663
Al  8.244207  0.864123  0.906595
Al 11.857077  0.861343  0.885361
Al  8.216897  4.443475  4.538096
Al 11.861673  4.477476  4.494000
Al  8.276425  8.001245  4.521262
Al 11.873080  8.084230  4.511991
Al  8.408663 11.813525  4.527467
Al 11.880913 11.685635  4.514248
Al  8.311937  0.820281  4.445842
Al 11.887331  0.867732  4.488952
Al  8.299710  4.371752  8.101386
Al 11.846782  4.488506  8.124575
Al  8.270743  8.172323  8.090279
Al 11.845570  8.079573  8.119319
Al  8.302831 11.705931  8.195977
Al 11.905336 11.682903  8.149720
Al  8.353436  0.838996  8.236415
Al 11.854182  0.850171  8.149874
Al  8.242624  4.484306 11.742432
Al 11.819366  4.497841 11.767622
Al  8.195262  8.068836 11.746471
Al 11.838116  8.076029 11.764271
Al  8.224031 11.689506 11.770732
Al 11.842212 11.667955 11.778953
Al  8.236945  0.852826 11.748418
Al 11.870708  0.852690 11.781443
Al  4.769698  2.660705 13.545121
Al  0.824744  0.876126 11.751651
Al  2.795359  2.760237 11.632308
Al  4.671712 13.545130 13.631065
Al  2.781627 13.418993 11.676730
Al  4.612682  9.981232 13.689113
Al  1.000955  9.874743 13.545807
Al  2.822738  2.659528  8.257724
Al  0.857905 11.687204  8.275611
Al  4.736297  9.957246  9.937508
Al  2.762057  9.708651  8.161098
Al  4.708185  6.165625  9.923497
Al  4.702141  8.042330 11.864577
Al  2.876482  6.254393  7.879948
Al  0.839788  6.272411  9.918080
Al  4.549479  0.845807  4.514422
Al  6.378178  0.834355  6.439844
Al  2.643592  0.782835  2.676370
Al  0.892872  2.657187  6.261006
Al  6.254484 11.816190  6.381054
Al  0.886875 13.647007  6.274067
Al  2.880709 11.716150  6.228891
Al  6.246311  9.812454  4.492005
Al  6.288952  6.240083  7.842313
Al  2.844893  6.156458  4.645571
Al  2.711438  2.732612  0.889207
Al  6.292742 11.826071  2.649367
Al  2.766647 11.725372  2.696299
Al  2.815395  6.181789  0.834394
Al  2.732727  6.172718 11.933280
Al  2.793636  8.183123  2.715024
Ni  8.181941  6.247283  2.744883
Ni 10.034941  4.464420  2.719505
Ni 10.024730  6.284297  0.944142
Ni 11.867025  6.282899  2.715558
Ni 13.674323  4.487961  2.696012
Ni 13.658258  6.293079  0.925867
Ni  8.176379  9.973358  2.828787
Ni 10.032685  8.088765  2.731102
Ni 10.041691  9.874228  0.930171
Ni 11.870535  9.879309  2.720119
Ni 13.697288  8.081084  2.720586
Ni 13.681274  9.880282  0.916087
Ni  8.252950 13.466120  2.696696
Ni 10.079714 11.696147  2.689444
Ni 10.045782 13.507178  0.890045
Ni 11.868910 13.508318  2.670898
Ni 13.660289 11.687361  2.698893
Ni 13.671193 13.496802  0.877198
Ni  8.225306  2.659256  2.732071
Ni 10.074766  0.853275  2.681672
Ni 10.027182  2.670668  0.900902
Ni 11.856276  2.673056  2.678606
Ni 13.676408  0.860849  2.665266
Ni 13.667238  2.672875  0.893904
Ni  8.223585  6.252281  6.349871
Ni 10.053257  4.463046  6.306485
Ni 10.052190  6.256724  4.509446
Ni 11.845331  6.290057  6.290552
Ni 13.657347  4.499484  6.298218
Ni 13.687932  6.283095  4.499125
Ni  8.185050 10.002122  6.205583
Ni 10.030846  8.093394  6.307088
Ni 10.063201  9.894816  4.520115
Ni 11.870001  9.871862  6.323450
Ni 13.688601  8.081586  6.313744
Ni 13.690513  9.887676  4.526421
Ni  8.252058 13.526305  6.357208
Ni 10.094403 11.708728  6.345602
Ni 10.120479 13.535468  4.513330
Ni 11.893001 13.491291  6.330817
Ni 13.698000 11.687583  6.331267
Ni 13.644701 13.510229  4.470832
Ni  8.254729  2.560063  6.320833
Ni 10.098966  0.836920  6.325411
Ni 10.061108  2.652808  4.513113
Ni 11.861552  2.692106  6.312589
Ni 13.601020  0.885345  6.337924
Ni 13.630876  2.678821  4.460368
Ni  8.191761  6.271015  9.838065
Ni 10.040451  4.484231  9.936950
Ni 10.040709  6.282280  8.113489
Ni 11.852148  6.288300  9.941893
Ni 13.626712  4.452961  9.943017
Ni 13.624796  6.276423  8.081838
Ni  8.194513  9.887912  9.945852
Ni 10.015704  8.082114  9.929887
Ni 10.048727  9.904975  8.116790
Ni 11.832677  9.869648  9.943167
Ni 13.647141  8.101650  9.943142
Ni 13.672057  9.843538  8.139040
Ni  8.254041 13.507706  9.960979
Ni 10.054740 11.677464  9.971699
Ni 10.084344 13.490760  8.151469
Ni 11.855102 13.491375  9.971260
Ni 13.633167 11.663899 10.011378
Ni 13.658216 13.526423  8.166425
Ni  8.259351  2.654620  9.941547
Ni 10.087091  0.847357  9.987157
Ni 10.087265  2.649903  8.129166
Ni 11.836041  2.673767  9.957248
Ni 13.623343  0.871026  9.933642
Ni 13.630262  2.679132  8.148448
Ni  8.230010  6.287452 13.603523
Ni 10.021747  4.484013 13.576346
Ni 10.016463  6.294121 11.746880
Ni 11.824144  6.279201 13.595090
Ni 13.646222  4.487873 13.577058
Ni 13.624896  6.284038 11.793133
Ni  8.221208  9.860443 13.588958
Ni 10.026607  8.080661 13.585410
Ni 10.019049  9.862667 11.760425
Ni 11.855494  9.868222 13.573012
Ni 13.657972  8.065525 13.576663
Ni 13.650639  9.853500 11.747830
Ni  8.232594 13.516354 13.553701
Ni 10.052733 11.676846 13.552039
Ni 10.048611 13.497509 11.767373
Ni 11.843150 13.501058 13.567633
Ni 13.671304 11.698287 13.540303
Ni 13.636845 13.474161 11.761053
Ni  8.217443  2.675196 13.561831
Ni 10.036759  0.858974 13.558718
Ni 10.041012  2.674046 11.764109
Ni 11.839677  2.682297 13.576991
Ni 13.636016  0.850304 13.583175
Ni 13.599712  2.711670 11.765875
Ni  1.053143  6.289048  2.721740
Ni  2.806314  4.452137  2.729146
Ni  0.960959  4.496301  0.900492
Ni  4.565941  6.263432  2.769999
Ni  6.373110  4.445018  2.754535
Ni  4.599664  8.040538  0.934880
Ni  4.642232  4.428109  0.927405
Ni  0.999215  8.055316  0.921408
Ni  0.968148  9.905440  2.709230
Ni  4.615230  9.905403  2.669749
Ni  6.373485  8.038985  2.755203
Ni  6.438101  9.913004  0.966202
Ni  2.765959  9.902892  0.897376
Ni  0.936968 13.478339  2.698070
Ni  4.548915 11.750050  0.907555
Ni  2.755725 13.529778  0.851768
Ni  4.563704 13.599564  2.688374
Ni  4.611123 11.752129  4.477689
Ni  6.437036 13.539006  0.907607
Ni  0.971834  2.680278  2.683914
Ni  4.569687  0.909311  0.906142
Ni  0.989109  0.857442  0.840720
Ni  4.582008  2.616597  2.710401
Ni  6.417504  0.832123  2.686452
Ni  6.422198  2.650509  0.957067
Ni  2.786686  0.903493 13.476860
Ni  0.981968  6.249234  6.292340
Ni  2.784386  4.326371  6.333366
Ni  0.976213  4.462254  4.483182
Ni  6.417109  4.343921  6.316889
Ni  6.335751  6.242490  4.600766
Ni  4.606011  4.385811  4.542781
Ni  1.036632  9.938408  6.359053
Ni  2.782478  8.092801  6.277451
Ni  2.807567  9.911712  4.510656
Ni  1.022143  8.086004  4.517154
Ni  4.585726  9.868060  6.327301
Ni  6.426669  8.128558  6.312687
Ni  4.535839  8.029605  4.549552
Ni  0.920731  0.883892  4.477446
Ni  0.976831 11.702489  4.530223
Ni  4.547139 13.589111  6.348781
Ni  6.414672 13.553416  4.526966
Ni  2.746190 13.542119  4.518724
Ni  2.732959  0.919053  6.377582
Ni  2.781274  2.634356  4.471036
Ni  4.611966  2.625072  6.324666
Ni  6.405092  2.553884  4.529354
Ni  0.961375  4.469642  8.113062
Ni  6.444306  4.443753  9.889645
Ni  4.622317  4.437839  8.104894
Ni  1.012273  9.810015  9.968751
Ni  0.984796  8.017940  8.117656
Ni  2.868184  7.888723 10.019953
Ni  6.363016  8.045701  9.889781
Ni  6.434820  9.936601  8.080049
Ni  4.609851  8.070844  8.081815
Ni  0.953598 13.523707  9.974659
Ni  2.775962 11.625649  9.911833
Ni  2.689370 13.482986  8.098622
Ni  4.589618 13.492313  9.922435
Ni  6.421304 11.736181  9.956502
Ni  6.405154 13.510129  8.181247
Ni  4.507405 11.704640  8.161190
Ni  0.939598  2.711110  9.960812
Ni  2.752227  0.831946 10.016981
Ni  0.964759  0.903748  8.201273
Ni  4.643610  2.673793  9.947781
Ni  6.400782  0.845341  9.945856
Ni  6.418971  2.613026  8.148500
Ni  4.553785  0.830785  8.197462
Ni  0.938823  6.274732 13.594602
Ni  2.819169  4.361350 13.554381
Ni  2.769681  4.643569  9.912653
Ni  0.936609  4.484265 11.760827
Ni  4.651236  6.218953 13.576140
Ni  6.441497  4.496998 13.568921
Ni  6.450752  6.260375 11.757642
Ni  4.657057  4.456963 11.747493
Ni  0.978379 11.711175  0.883398
Ni  2.826747  8.084998 13.562316
Ni  2.892729  9.855536 11.711830
Ni  0.998962  8.046022 11.758276
Ni  6.389920  6.256478  0.944820
Ni  6.389654  9.877729 11.797492
Ni  6.408915  8.066510 13.627288
Ni  0.991250 13.508768 13.514469
Ni  2.778126 11.727945 13.542804
Ni  0.986995 11.649129 11.720263
Ni  6.432923 11.702322 13.584270
Ni  6.410704 13.507595 11.731832
Ni  4.635193 11.742718 11.772057
Ni  0.944117  2.676916 13.529240
Ni  4.624649  0.842408 11.724592
Ni  6.440637  0.856047 13.546506
Ni  6.460610  2.665683 11.707603
%ENDBLOCK POSITIONS_ABS

