#######################################################
#CASTEP cell file: /home/u2093113/Documents/kART/CASTEP/castep.cell
#Created using the Atomic Simulation Environment (ASE)#
#######################################################

%BLOCK LATTICE_CART
14.464828  0.000000  0.000000
 0.000000 14.464828  0.000000
 0.000000  0.000000 14.464828
%ENDBLOCK LATTICE_CART

%BLOCK POSITIONS_ABS
Al  8.223461  4.456804  0.928462
Al 11.845943  4.470341  0.913989
Al  8.220717  8.092445  0.970163
Al 11.857043  8.085344  0.926403
Al  8.308712 11.693562  0.846059
Al 11.880678 11.685943  0.894479
Al  8.247517  0.858961  0.912843
Al 11.859650  0.857241  0.892384
Al  8.221108  4.436867  4.527714
Al 11.855248  4.475490  4.506018
Al  8.282548  8.001489  4.509438
Al 11.864080  8.079358  4.519724
Al  8.403919 11.808642  4.532977
Al 11.877773 11.683757  4.522709
Al  8.308706  0.822031  4.451507
Al 11.885951  0.865482  4.501368
Al  8.240321  4.421926  8.115585
Al 11.836874  4.488447  8.131150
Al  8.218455  8.115402  8.110057
Al 11.832975  8.074903  8.124093
Al  8.301850 11.706214  8.199177
Al 11.898270 11.676911  8.149776
Al  8.351954  0.835305  8.239788
Al 11.845926  0.851481  8.151157
Al  8.250872  4.472204 11.761931
Al 11.813384  4.491899 11.764743
Al  8.202144  8.074935 11.767734
Al 11.832426  8.078210 11.763386
Al  8.229029 11.691410 11.775354
Al 11.841639 11.668104 11.778424
Al  8.244721  0.848926 11.751817
Al 11.874944  0.847807 11.778346
Al  4.767159  2.657409 13.544013
Al  0.824850  0.873449 11.746735
Al  2.799775  2.759448 11.633169
Al  4.667660 13.543116 13.632462
Al  2.781273 13.415021 11.673253
Al  4.610697  9.984812 13.689764
Al  0.994697  9.875140 13.547395
Al  2.840014  2.679889  8.261841
Al  0.863225 11.676183  8.274437
Al  4.732740  9.963774  9.950271
Al  2.777200  9.680769  8.158033
Al  4.817903  6.180364  9.851292
Al  4.707577  8.034566 11.865433
Al  2.822886  6.264099  7.959065
Al  0.830398  6.270126  9.937925
Al  4.547650  0.849160  4.519902
Al  6.376232  0.838886  6.442427
Al  2.642142  0.783654  2.684154
Al  0.904129  2.665449  6.269992
Al  6.252147 11.806796  6.381056
Al  0.892858 13.644177  6.280429
Al  2.884596 11.708142  6.233309
Al  6.241472  9.801461  4.488709
Al  5.587966  6.232885  7.106352
Al  2.786038  6.154115  4.586553
Al  2.704592  2.724445  0.883245
Al  6.290377 11.823736  2.651761
Al  2.764813 11.719672  2.703045
Al  2.807931  6.179585  0.828305
Al  2.746743  6.170990 11.930523
Al  2.780295  8.189687  2.702149
Ni  8.198589  6.244994  2.724057
Ni 10.040984  4.459822  2.721311
Ni 10.035827  6.279979  0.941608
Ni 11.863976  6.279097  2.720049
Ni 13.668179  4.483028  2.699604
Ni 13.649389  6.291265  0.919855
Ni  8.176203  9.974979  2.827864
Ni 10.038411  8.087384  2.730186
Ni 10.047010  9.877593  0.934606
Ni 11.868813  9.878673  2.726900
Ni 13.691532  8.078837  2.723814
Ni 13.677961  9.882774  0.920072
Ni  8.251841 13.464514  2.703005
Ni 10.080573 11.695075  2.697942
Ni 10.050601 13.507393  0.897032
Ni 11.869798 13.507797  2.681949
Ni 13.659152 11.687317  2.709102
Ni 13.671763 13.495646  0.883863
Ni  8.227615  2.654847  2.730658
Ni 10.075988  0.850467  2.691616
Ni 10.034140  2.663571  0.905676
Ni 11.855937  2.667714  2.686428
Ni 13.679746  0.858984  2.675994
Ni 13.667662  2.667160  0.896703
Ni  8.193187  6.249074  6.337471
Ni 10.033989  4.464617  6.319453
Ni 10.046639  6.252914  4.514263
Ni 11.834449  6.287302  6.301536
Ni 13.653444  4.496060  6.309430
Ni 13.681415  6.279606  4.505266
Ni  8.177684  9.998432  6.215327
Ni 10.009414  8.087387  6.318886
Ni 10.058807  9.890953  4.525699
Ni 11.859898  9.865992  6.330334
Ni 13.681435  8.078793  6.318681
Ni 13.687832  9.884934  4.534098
Ni  8.245669 13.525238  6.360096
Ni 10.087706 11.704571  6.350504
Ni 10.116322 13.533967  4.520800
Ni 11.891381 13.488897  6.337114
Ni 13.701360 11.680712  6.335964
Ni 13.648910 13.508501  4.483210
Ni  8.250019  2.563191  6.332002
Ni 10.092871  0.835174  6.330859
Ni 10.058929  2.651619  4.521539
Ni 11.855648  2.692155  6.324578
Ni 13.605224  0.886174  6.347634
Ni 13.627954  2.674910  4.471466
Ni  8.179564  6.267976  9.886920
Ni 10.029119  4.481917  9.938810
Ni 10.009921  6.279040  8.121831
Ni 11.845128  6.286756  9.943506
Ni 13.624813  4.449370  9.945393
Ni 13.619860  6.274403  8.089176
Ni  8.199139  9.888573  9.951667
Ni 10.004501  8.078437  9.934742
Ni 10.026985  9.889884  8.120408
Ni 11.824560  9.868242  9.943016
Ni 13.641322  8.102812  9.945659
Ni 13.667541  9.842005  8.141563
Ni  8.257034 13.505955  9.965937
Ni 10.054583 11.678124  9.972228
Ni 10.081254 13.488907  8.152087
Ni 11.855254 13.488539  9.968180
Ni 13.632199 11.659157 10.006827
Ni 13.661854 13.523332  8.166844
Ni  8.263924  2.650481  9.944854
Ni 10.087322  0.843681  9.988239
Ni 10.069050  2.659406  8.133640
Ni 11.831205  2.670767  9.955726
Ni 13.627991  0.871672  9.929249
Ni 13.633027  2.678210  8.153208
Ni  8.234301  6.284211 13.611331
Ni 10.027704  4.475812 13.583276
Ni 10.016746  6.291083 11.755028
Ni 11.821212  6.276192 13.591973
Ni 13.644673  4.484096 13.573601
Ni 13.618550  6.283478 11.796429
Ni  8.224917  9.866879 13.596710
Ni 10.031198  8.082491 13.591280
Ni 10.020434  9.866125 11.765133
Ni 11.856915  9.871161 13.573884
Ni 13.654115  8.066145 13.574417
Ni 13.650290  9.854190 11.745412
Ni  8.237386 13.516242 13.556594
Ni 10.056685 11.679176 13.558357
Ni 10.053775 13.496604 11.770185
Ni 11.845494 13.500308 13.569543
Ni 13.671491 11.699977 13.540948
Ni 13.639602 13.472283 11.756283
Ni  8.223161  2.664748 13.571116
Ni 10.043266  0.854896 13.564020
Ni 10.043507  2.666560 11.768432
Ni 11.843021  2.675702 13.576535
Ni 13.636435  0.846218 13.582354
Ni 13.601175  2.707849 11.761992
Ni  1.032232  6.285753  2.708402
Ni  2.796556  4.444176  2.716548
Ni  0.954148  4.492298  0.893380
Ni  4.558735  6.259151  2.742069
Ni  6.375745  4.437666  2.740309
Ni  4.596237  8.041436  0.930331
Ni  4.638657  4.419709  0.922581
Ni  0.989737  8.054584  0.916704
Ni  0.962029  9.904208  2.711984
Ni  4.610283  9.902973  2.665723
Ni  6.375180  8.043038  2.736193
Ni  6.434663  9.917527  0.963160
Ni  2.758812  9.907103  0.892648
Ni  0.939220 13.477569  2.708221
Ni  4.543110 11.751680  0.909485
Ni  2.752226 13.529696  0.856387
Ni  4.560541 13.598812  2.693188
Ni  4.611156 11.745049  4.478372
Ni  6.435354 13.539348  0.911837
Ni  0.970858  2.677469  2.688739
Ni  4.566717  0.906212  0.904904
Ni  0.987781  0.853432  0.843961
Ni  4.577030  2.613907  2.709938
Ni  6.415360  0.830205  2.689312
Ni  6.421913  2.642510  0.956319
Ni  2.782932  0.897544 13.474651
Ni  0.969235  6.246685  6.300013
Ni  2.804747  4.379177  6.337516
Ni  0.964094  4.454404  4.488237
Ni  6.427949  4.340612  6.309319
Ni  6.370992  6.243333  4.536898
Ni  4.605902  4.405093  4.530300
Ni  1.045388  9.922287  6.364397
Ni  2.802816  8.040508  6.281286
Ni  2.808152  9.899473  4.516538
Ni  1.019014  8.083343  4.520145
Ni  4.585574  9.855534  6.325651
Ni  6.440229  8.123615  6.305604
Ni  4.532997  8.014447  4.526419
Ni  0.925753  0.887756  4.488598
Ni  0.978069 11.695277  4.538994
Ni  4.550432 13.586721  6.353326
Ni  6.410652 13.550921  4.532038
Ni  2.749260 13.540582  4.526994
Ni  2.741525  0.922673  6.385033
Ni  2.782704  2.647607  4.480383
Ni  4.612751  2.634205  6.324065
Ni  6.405711  2.556434  4.525461
Ni  0.964574  4.467760  8.122292
Ni  6.456530  4.405554  9.934122
Ni  4.653837  4.443730  8.111470
Ni  1.017486  9.803634  9.966991
Ni  0.974214  8.017119  8.124273
Ni  2.884908  7.880812 10.030822
Ni  6.378441  8.086492  9.936388
Ni  6.439793  9.925084  8.088212
Ni  4.650264  8.059408  8.095235
Ni  0.956602 13.519416  9.970342
Ni  2.779225 11.619634  9.908817
Ni  2.693794 13.479196  8.097829
Ni  4.592290 13.487204  9.920221
Ni  6.426642 11.734746  9.960091
Ni  6.407751 13.507435  8.182229
Ni  4.512379 11.695324  8.160734
Ni  0.949947  2.713092  9.961525
Ni  2.756266  0.831406 10.013981
Ni  0.972583  0.907555  8.203155
Ni  4.649200  2.667577  9.957375
Ni  6.405425  0.842432  9.949802
Ni  6.422754  2.619791  8.154450
Ni  4.560166  0.833250  8.199784
Ni  0.939328  6.274631 13.589548
Ni  2.819701  4.356405 13.550644
Ni  2.797344  4.660652  9.923167
Ni  0.939725  4.482649 11.761571
Ni  4.650858  6.215888 13.579868
Ni  6.443470  4.491710 13.573333
Ni  6.453947  6.257967 11.770522
Ni  4.665061  4.461578 11.746406
Ni  0.974681 11.713717  0.886982
Ni  2.827167  8.085078 13.560834
Ni  2.893117  9.857540 11.717570
Ni  1.000756  8.046934 11.760156
Ni  6.391975  6.253147  0.941512
Ni  6.392345  9.890151 11.816100
Ni  6.410473  8.066875 13.633018
Ni  0.989738 13.508009 13.513632
Ni  2.773200 11.729560 13.543683
Ni  0.986639 11.645257 11.715992
Ni  6.433042 11.709339 13.591308
Ni  6.415363 13.506915 11.733695
Ni  4.637040 11.746107 11.774660
Ni  0.942835  2.671195 13.525284
Ni  4.628323  0.835079 11.727732
Ni  6.443872  0.847944 13.552055
Ni  6.466394  2.649604 11.723387
%ENDBLOCK POSITIONS_ABS

