%block lattice_abc 
  14.46482773 14.46482773 14.46482773 #lattice params 
 90.0  90.0  90.0 
     %endblock lattice_abc 
     fix_all_cell : true 
     %BLOCK POSITIONS_ABS 
Al  8.230385  4.448544  0.927546
 Al 11.848654  4.461995  0.915606
 Al  8.226887  8.095862  0.967553
 Al 11.858137  8.086354  0.927693
 Al  8.311735 11.698085  0.851193
 Al 11.883154 11.687967  0.900295
 Al  8.250828  0.853800  0.919091
 Al 11.862223  0.853138  0.899406
 Al  8.225319  4.430260  4.517332
 Al 11.848823  4.473504  4.518036
 Al  8.288671  8.001733  4.497613
 Al 11.855079  8.074487  4.527458
 Al  8.399175 11.803759  4.538487
 Al 11.874633 11.681879  4.531170
 Al  8.305474  0.823781  4.457172
 Al 11.884570  0.863233  4.513784
 Al  8.180932  4.472099  8.129784
 Al 11.826965  4.488388  8.137725
 Al  8.166167  8.058480  8.129835
 Al 11.820379  8.070233  8.128867
 Al  8.300869 11.706497  8.202377
 Al 11.891204 11.670918  8.149832
 Al  8.350471  0.831614  8.243161
 Al 11.837670  0.852792  8.152440
 Al  8.259121  4.460102 11.781429
 Al 11.807403  4.485956 11.761865
 Al  8.209026  8.081033 11.788998
 Al 11.826736  8.080391 11.762500
 Al  8.234027 11.693313 11.779976
 Al 11.841067 11.668253 11.777896
 Al  8.252497  0.845025 11.755215
 Al 11.879179  0.842925 11.775249
 Al  4.764621  2.654114 13.542906
 Al  0.824956  0.870773 11.741818
 Al  2.804190  2.758659 11.634029
 Al  4.663609 13.541101 13.633859
 Al  2.780919 13.411049 11.669777
 Al  4.608712  9.988393 13.690416
 Al  0.988438  9.875536 13.548983
 Al  2.857290  2.700249  8.265959
 Al  0.868545 11.665162  8.273264
 Al  4.729183  9.970302  9.963033
 Al  2.792343  9.652887  8.154967
 Al  4.927622  6.195103  9.779088
 Al  4.713013  8.026801 11.866290
 Al  2.769291  6.273804  8.038183
 Al  0.821008  6.267841  9.957770
 Al  4.545821  0.852513  4.525383
 Al  6.374287  0.843418  6.445010
 Al  2.640692  0.784472  2.691938
 Al  0.915387  2.673711  6.278977
 Al  6.249809 11.797403  6.381059
 Al  0.898841 13.641347  6.286791
 Al  2.888482 11.700135  6.237727
 Al  6.236632  9.790467  4.485413
 Al  4.886981  6.225687  6.370392
 Al  2.727183  6.151773  4.527534
 Al  2.697747  2.716279  0.877284
 Al  6.288011 11.821401  2.654155
 Al  2.762980 11.713972  2.709792
 Al  2.800467  6.177382  0.822217
 Al  2.760760  6.169262 11.927766
 Al  2.766955  8.196251  2.689275
 Ni  8.215238  6.242705  2.703232
 Ni 10.047028  4.455223  2.723117
 Ni 10.046925  6.275661  0.939074
 Ni 11.860926  6.275295  2.724540
 Ni 13.662035  4.478095  2.703195
 Ni 13.640520  6.289451  0.913843
 Ni  8.176027  9.976601  2.826941
 Ni 10.044138  8.086003  2.729271
 Ni 10.052329  9.880958  0.939040
 Ni 11.867091  9.878037  2.733681
 Ni 13.685775  8.076589  2.727042
 Ni 13.674648  9.885266  0.924058
 Ni  8.250731 13.462907  2.709314
 Ni 10.081432 11.694004  2.706439
 Ni 10.055420 13.507608  0.904019
 Ni 11.870687 13.507276  2.693000
 Ni 13.658014 11.687273  2.719312
 Ni 13.672333 13.494489  0.890528
 Ni  8.229923  2.650438  2.729245
 Ni 10.077211  0.847660  2.701560
 Ni 10.041097  2.656475  0.910450
 Ni 11.855597  2.662372  2.694250
 Ni 13.683084  0.857119  2.686721
 Ni 13.668087  2.661444  0.899501
 Ni  8.162789  6.245867  6.325072
 Ni 10.014720  4.466188  6.332421
 Ni 10.041089  6.249104  4.519080
 Ni 11.823566  6.284547  6.312521
 Ni 13.649541  4.492635  6.320642
 Ni 13.674898  6.276118  4.511408
 Ni  8.170318  9.994742  6.225071
 Ni  9.987983  8.081380  6.330684
 Ni 10.054414  9.887091  4.531283
 Ni 11.849795  9.860122  6.337219
 Ni 13.674269  8.076001  6.323618
 Ni 13.685151  9.882191  4.541775
 Ni  8.239281 13.524171  6.362985
 Ni 10.081009 11.700414  6.355405
 Ni 10.112165 13.532465  4.528269
 Ni 11.889761 13.486503  6.343410
 Ni 13.704720 11.673842  6.340661
 Ni 13.653118 13.506773  4.495588
 Ni  8.245309  2.566319  6.343171
 Ni 10.086776  0.833429  6.336306
 Ni 10.056751  2.650429  4.529966
 Ni 11.849745  2.692204  6.336567
 Ni 13.609427  0.887004  6.357344
 Ni 13.625031  2.670998  4.482565
 Ni  8.167367  6.264936  9.935775
 Ni 10.017788  4.479603  9.940670
 Ni  9.979132  6.275800  8.130173
 Ni 11.838107  6.285212  9.945119
 Ni 13.622914  4.445780  9.947769
 Ni 13.614925  6.272383  8.096515
 Ni  8.203765  9.889235  9.957482
 Ni  9.993297  8.074759  9.939597
 Ni 10.005243  9.874794  8.124026
 Ni 11.816443  9.866835  9.942865
 Ni 13.635503  8.103974  9.948175
 Ni 13.663025  9.840472  8.144086
 Ni  8.260027 13.504204  9.970895
 Ni 10.054427 11.678784  9.972757
 Ni 10.078163 13.487054  8.152705
 Ni 11.855406 13.485703  9.965099
 Ni 13.631231 11.654415 10.002276
 Ni 13.665492 13.520241  8.167263
 Ni  8.268497  2.646343  9.948161
 Ni 10.087552  0.840005  9.989322
 Ni 10.050835  2.668909  8.138114
 Ni 11.826370  2.667767  9.954205
 Ni 13.632639  0.872319  9.924856
 Ni 13.635792  2.677288  8.157968
 Ni  8.238591  6.280970 13.619139
 Ni 10.033661  4.467610 13.590206
 Ni 10.017029  6.288045 11.763176
 Ni 11.818281  6.273183 13.588856
 Ni 13.643123  4.480319 13.570143
 Ni 13.612204  6.282917 11.799725
 Ni  8.228627  9.873316 13.604461
 Ni 10.035789  8.084321 13.597150
 Ni 10.021820  9.869582 11.769841
 Ni 11.858335  9.874100 13.574756
 Ni 13.650259  8.066765 13.572171
 Ni 13.649941  9.854880 11.742994
 Ni  8.242178 13.516131 13.559487
 Ni 10.060637 11.681506 13.564675
 Ni 10.058940 13.495700 11.772998
 Ni 11.847838 13.499558 13.571454
 Ni 13.671678 11.701667 13.541593
 Ni 13.642360 13.470406 11.751514
 Ni  8.228878  2.654299 13.580400
 Ni 10.049774  0.850818 13.569323
 Ni 10.046002  2.659074 11.772756
 Ni 11.846366  2.669108 13.576078
 Ni 13.636854  0.842132 13.581533
 Ni 13.602638  2.704029 11.758109
 Ni  1.011321  6.282458  2.695064
 Ni  2.786799  4.436215  2.703949
 Ni  0.947337  4.488294  0.886268
 Ni  4.551530  6.254870  2.714140
 Ni  6.378380  4.430314  2.726082
 Ni  4.592809  8.042334  0.925782
 Ni  4.635081  4.411308  0.917757
 Ni  0.980260  8.053852  0.912000
 Ni  0.955911  9.902977  2.714738
 Ni  4.605336  9.900542  2.661696
 Ni  6.376875  8.047092  2.717182
 Ni  6.431225  9.922049  0.960118
 Ni  2.751665  9.911314  0.887919
 Ni  0.941471 13.476799  2.718371
 Ni  4.537305 11.753310  0.911414
 Ni  2.748726 13.529614  0.861005
 Ni  4.557378 13.598061  2.698001
 Ni  4.611189 11.737968  4.479054
 Ni  6.433673 13.539690  0.916067
 Ni  0.969883  2.674659  2.693564
 Ni  4.563747  0.903114  0.903667
 Ni  0.986453  0.849422  0.847203
 Ni  4.572051  2.611217  2.709475
 Ni  6.413216  0.828287  2.692172
 Ni  6.421627  2.634511  0.955571
 Ni  2.779178  0.891595 13.472441
 Ni  0.956502  6.244137  6.307685
 Ni  2.825109  4.431982  6.341666
 Ni  0.951974  4.446554  4.493292
 Ni  6.438789  4.337303  6.301748
 Ni  6.406233  6.244176  4.473031
 Ni  4.605793  4.424376  4.517820
 Ni  1.054144  9.906165  6.369740
 Ni  2.823154  7.988216  6.285121
 Ni  2.808737  9.887233  4.522421
 Ni  1.015885  8.080683  4.523136
 Ni  4.585421  9.843008  6.324001
 Ni  6.453790  8.118671  6.298522
 Ni  4.530154  7.999289  4.503286
 Ni  0.930775  0.891620  4.499751
 Ni  0.979307 11.688066  4.547766
 Ni  4.553725 13.584330  6.357871
 Ni  6.406631 13.548426  4.537110
 Ni  2.752330 13.539045  4.535265
 Ni  2.750090  0.926294  6.392484
 Ni  2.784135  2.660859  4.489731
 Ni  4.613536  2.643338  6.323464
 Ni  6.406329  2.558984  4.521568
 Ni  0.967772  4.465878  8.131522
 Ni  6.468753  4.367355  9.978600
 Ni  4.685357  4.449621  8.118047
 Ni  1.022699  9.797253  9.965232
 Ni  0.963632  8.016298  8.130891
 Ni  2.901632  7.872901 10.041690
 Ni  6.393867  8.127282  9.982995
 Ni  6.444766  9.913567  8.096374
 Ni  4.690677  8.047971  8.108655
 Ni  0.959606 13.515125  9.966025
 Ni  2.782488 11.613618  9.905801
 Ni  2.698218 13.475405  8.097036
 Ni  4.594962 13.482095  9.918006
 Ni  6.431980 11.733312  9.963681
 Ni  6.410348 13.504742  8.183211
 Ni  4.517353 11.686007  8.160278
 Ni  0.960296  2.715074  9.962239
 Ni  2.760304  0.830866 10.010980
 Ni  0.980406  0.911362  8.205037
 Ni  4.654790  2.661361  9.966970
 Ni  6.410068  0.839522  9.953747
 Ni  6.426537  2.626555  8.160401
 Ni  4.566547  0.835715  8.202106
 Ni  0.939834  6.274530 13.584493
 Ni  2.820233  4.351460 13.546907
 Ni  2.825006  4.677735  9.933681
 Ni  0.942842  4.481033 11.762315
 Ni  4.650480  6.212823 13.583595
 Ni  6.445443  4.486422 13.577745
 Ni  6.457143  6.255558 11.783402
 Ni  4.673065  4.466193 11.745319
 Ni  0.970983 11.716259  0.890566
 Ni  2.827588  8.085158 13.559353
 Ni  2.893505  9.859544 11.723311
 Ni  1.002550  8.047846 11.762037
 Ni  6.394030  6.249816  0.938204
 Ni  6.395037  9.902573 11.834709
 Ni  6.412030  8.067240 13.638749
 Ni  0.988227 13.507249 13.512795
 Ni  2.768273 11.731176 13.544562
 Ni  0.986282 11.641385 11.711720
 Ni  6.433161 11.716356 13.598346
 Ni  6.420022 13.506236 11.735558
 Ni  4.638887 11.749496 11.777263
 Ni  0.941552  2.665473 13.521328
 Ni  4.631997  0.827750 11.730871
 Ni  6.447108  0.839841 13.557604
 Ni  6.472178  2.633524 11.739170
 %ENDBLOCK POSITIONS_ABS
 
%block positions_abs_product 
     ang 
Al  8.216537  4.465064  0.929379
 Al 11.843231  4.478688  0.912372
 Al  8.214548  8.089028  0.972772
 Al 11.855948  8.084334  0.925114
 Al  8.305689 11.689039  0.840926
 Al 11.878202 11.683920  0.888663
 Al  8.244207  0.864123  0.906595
 Al 11.857077  0.861343  0.885361
 Al  8.216897  4.443475  4.538096
 Al 11.861673  4.477476  4.494000
 Al  8.276425  8.001245  4.521262
 Al 11.873080  8.084230  4.511991
 Al  8.408663 11.813525  4.527467
 Al 11.880913 11.685635  4.514248
 Al  8.311937  0.820281  4.445842
 Al 11.887331  0.867732  4.488952
 Al  8.299710  4.371752  8.101386
 Al 11.846782  4.488506  8.124575
 Al  8.270743  8.172323  8.090279
 Al 11.845570  8.079573  8.119319
 Al  8.302831 11.705931  8.195977
 Al 11.905336 11.682903  8.149720
 Al  8.353436  0.838996  8.236415
 Al 11.854182  0.850171  8.149874
 Al  8.242624  4.484306 11.742432
 Al 11.819366  4.497841 11.767622
 Al  8.195262  8.068836 11.746471
 Al 11.838116  8.076029 11.764271
 Al  8.224031 11.689506 11.770732
 Al 11.842212 11.667955 11.778953
 Al  8.236945  0.852826 11.748418
 Al 11.870708  0.852690 11.781443
 Al  4.769698  2.660705 13.545121
 Al  0.824744  0.876126 11.751651
 Al  2.795359  2.760237 11.632308
 Al  4.671712 13.545130 13.631065
 Al  2.781627 13.418993 11.676730
 Al  4.612682  9.981232 13.689113
 Al  1.000955  9.874743 13.545807
 Al  2.822738  2.659528  8.257724
 Al  0.857905 11.687204  8.275611
 Al  4.736297  9.957246  9.937508
 Al  2.762057  9.708651  8.161098
 Al  4.708185  6.165625  9.923497
 Al  4.702141  8.042330 11.864577
 Al  2.876482  6.254393  7.879948
 Al  0.839788  6.272411  9.918080
 Al  4.549479  0.845807  4.514422
 Al  6.378178  0.834355  6.439844
 Al  2.643592  0.782835  2.676370
 Al  0.892872  2.657187  6.261006
 Al  6.254484 11.816190  6.381054
 Al  0.886875 13.647007  6.274067
 Al  2.880709 11.716150  6.228891
 Al  6.246311  9.812454  4.492005
 Al  6.288952  6.240083  7.842313
 Al  2.844893  6.156458  4.645571
 Al  2.711438  2.732612  0.889207
 Al  6.292742 11.826071  2.649367
 Al  2.766647 11.725372  2.696299
 Al  2.815395  6.181789  0.834394
 Al  2.732727  6.172718 11.933280
 Al  2.793636  8.183123  2.715024
 Ni  8.181941  6.247283  2.744883
 Ni 10.034941  4.464420  2.719505
 Ni 10.024730  6.284297  0.944142
 Ni 11.867025  6.282899  2.715558
 Ni 13.674323  4.487961  2.696012
 Ni 13.658258  6.293079  0.925867
 Ni  8.176379  9.973358  2.828787
 Ni 10.032685  8.088765  2.731102
 Ni 10.041691  9.874228  0.930171
 Ni 11.870535  9.879309  2.720119
 Ni 13.697288  8.081084  2.720586
 Ni 13.681274  9.880282  0.916087
 Ni  8.252950 13.466120  2.696696
 Ni 10.079714 11.696147  2.689444
 Ni 10.045782 13.507178  0.890045
 Ni 11.868910 13.508318  2.670898
 Ni 13.660289 11.687361  2.698893
 Ni 13.671193 13.496802  0.877198
 Ni  8.225306  2.659256  2.732071
 Ni 10.074766  0.853275  2.681672
 Ni 10.027182  2.670668  0.900902
 Ni 11.856276  2.673056  2.678606
 Ni 13.676408  0.860849  2.665266
 Ni 13.667238  2.672875  0.893904
 Ni  8.223585  6.252281  6.349871
 Ni 10.053257  4.463046  6.306485
 Ni 10.052190  6.256724  4.509446
 Ni 11.845331  6.290057  6.290552
 Ni 13.657347  4.499484  6.298218
 Ni 13.687932  6.283095  4.499125
 Ni  8.185050 10.002122  6.205583
 Ni 10.030846  8.093394  6.307088
 Ni 10.063201  9.894816  4.520115
 Ni 11.870001  9.871862  6.323450
 Ni 13.688601  8.081586  6.313744
 Ni 13.690513  9.887676  4.526421
 Ni  8.252058 13.526305  6.357208
 Ni 10.094403 11.708728  6.345602
 Ni 10.120479 13.535468  4.513330
 Ni 11.893001 13.491291  6.330817
 Ni 13.698000 11.687583  6.331267
 Ni 13.644701 13.510229  4.470832
 Ni  8.254729  2.560063  6.320833
 Ni 10.098966  0.836920  6.325411
 Ni 10.061108  2.652808  4.513113
 Ni 11.861552  2.692106  6.312589
 Ni 13.601020  0.885345  6.337924
 Ni 13.630876  2.678821  4.460368
 Ni  8.191761  6.271015  9.838065
 Ni 10.040451  4.484231  9.936950
 Ni 10.040709  6.282280  8.113489
 Ni 11.852148  6.288300  9.941893
 Ni 13.626712  4.452961  9.943017
 Ni 13.624796  6.276423  8.081838
 Ni  8.194513  9.887912  9.945852
 Ni 10.015704  8.082114  9.929887
 Ni 10.048727  9.904975  8.116790
 Ni 11.832677  9.869648  9.943167
 Ni 13.647141  8.101650  9.943142
 Ni 13.672057  9.843538  8.139040
 Ni  8.254041 13.507706  9.960979
 Ni 10.054740 11.677464  9.971699
 Ni 10.084344 13.490760  8.151469
 Ni 11.855102 13.491375  9.971260
 Ni 13.633167 11.663899 10.011378
 Ni 13.658216 13.526423  8.166425
 Ni  8.259351  2.654620  9.941547
 Ni 10.087091  0.847357  9.987157
 Ni 10.087265  2.649903  8.129166
 Ni 11.836041  2.673767  9.957248
 Ni 13.623343  0.871026  9.933642
 Ni 13.630262  2.679132  8.148448
 Ni  8.230010  6.287452 13.603523
 Ni 10.021747  4.484013 13.576346
 Ni 10.016463  6.294121 11.746880
 Ni 11.824144  6.279201 13.595090
 Ni 13.646222  4.487873 13.577058
 Ni 13.624896  6.284038 11.793133
 Ni  8.221208  9.860443 13.588958
 Ni 10.026607  8.080661 13.585410
 Ni 10.019049  9.862667 11.760425
 Ni 11.855494  9.868222 13.573012
 Ni 13.657972  8.065525 13.576663
 Ni 13.650639  9.853500 11.747830
 Ni  8.232594 13.516354 13.553701
 Ni 10.052733 11.676846 13.552039
 Ni 10.048611 13.497509 11.767373
 Ni 11.843150 13.501058 13.567633
 Ni 13.671304 11.698287 13.540303
 Ni 13.636845 13.474161 11.761053
 Ni  8.217443  2.675196 13.561831
 Ni 10.036759  0.858974 13.558718
 Ni 10.041012  2.674046 11.764109
 Ni 11.839677  2.682297 13.576991
 Ni 13.636016  0.850304 13.583175
 Ni 13.599712  2.711670 11.765875
 Ni  1.053143  6.289048  2.721740
 Ni  2.806314  4.452137  2.729146
 Ni  0.960959  4.496301  0.900492
 Ni  4.565941  6.263432  2.769999
 Ni  6.373110  4.445018  2.754535
 Ni  4.599664  8.040538  0.934880
 Ni  4.642232  4.428109  0.927405
 Ni  0.999215  8.055316  0.921408
 Ni  0.968148  9.905440  2.709230
 Ni  4.615230  9.905403  2.669749
 Ni  6.373485  8.038985  2.755203
 Ni  6.438101  9.913004  0.966202
 Ni  2.765959  9.902892  0.897376
 Ni  0.936968 13.478339  2.698070
 Ni  4.548915 11.750050  0.907555
 Ni  2.755725 13.529778  0.851768
 Ni  4.563704 13.599564  2.688374
 Ni  4.611123 11.752129  4.477689
 Ni  6.437036 13.539006  0.907607
 Ni  0.971834  2.680278  2.683914
 Ni  4.569687  0.909311  0.906142
 Ni  0.989109  0.857442  0.840720
 Ni  4.582008  2.616597  2.710401
 Ni  6.417504  0.832123  2.686452
 Ni  6.422198  2.650509  0.957067
 Ni  2.786686  0.903493 13.476860
 Ni  0.981968  6.249234  6.292340
 Ni  2.784386  4.326371  6.333366
 Ni  0.976213  4.462254  4.483182
 Ni  6.417109  4.343921  6.316889
 Ni  6.335751  6.242490  4.600766
 Ni  4.606011  4.385811  4.542781
 Ni  1.036632  9.938408  6.359053
 Ni  2.782478  8.092801  6.277451
 Ni  2.807567  9.911712  4.510656
 Ni  1.022143  8.086004  4.517154
 Ni  4.585726  9.868060  6.327301
 Ni  6.426669  8.128558  6.312687
 Ni  4.535839  8.029605  4.549552
 Ni  0.920731  0.883892  4.477446
 Ni  0.976831 11.702489  4.530223
 Ni  4.547139 13.589111  6.348781
 Ni  6.414672 13.553416  4.526966
 Ni  2.746190 13.542119  4.518724
 Ni  2.732959  0.919053  6.377582
 Ni  2.781274  2.634356  4.471036
 Ni  4.611966  2.625072  6.324666
 Ni  6.405092  2.553884  4.529354
 Ni  0.961375  4.469642  8.113062
 Ni  6.444306  4.443753  9.889645
 Ni  4.622317  4.437839  8.104894
 Ni  1.012273  9.810015  9.968751
 Ni  0.984796  8.017940  8.117656
 Ni  2.868184  7.888723 10.019953
 Ni  6.363016  8.045701  9.889781
 Ni  6.434820  9.936601  8.080049
 Ni  4.609851  8.070844  8.081815
 Ni  0.953598 13.523707  9.974659
 Ni  2.775962 11.625649  9.911833
 Ni  2.689370 13.482986  8.098622
 Ni  4.589618 13.492313  9.922435
 Ni  6.421304 11.736181  9.956502
 Ni  6.405154 13.510129  8.181247
 Ni  4.507405 11.704640  8.161190
 Ni  0.939598  2.711110  9.960812
 Ni  2.752227  0.831946 10.016981
 Ni  0.964759  0.903748  8.201273
 Ni  4.643610  2.673793  9.947781
 Ni  6.400782  0.845341  9.945856
 Ni  6.418971  2.613026  8.148500
 Ni  4.553785  0.830785  8.197462
 Ni  0.938823  6.274732 13.594602
 Ni  2.819169  4.361350 13.554381
 Ni  2.769681  4.643569  9.912653
 Ni  0.936609  4.484265 11.760827
 Ni  4.651236  6.218953 13.576140
 Ni  6.441497  4.496998 13.568921
 Ni  6.450752  6.260375 11.757642
 Ni  4.657057  4.456963 11.747493
 Ni  0.978379 11.711175  0.883398
 Ni  2.826747  8.084998 13.562316
 Ni  2.892729  9.855536 11.711830
 Ni  0.998962  8.046022 11.758276
 Ni  6.389920  6.256478  0.944820
 Ni  6.389654  9.877729 11.797492
 Ni  6.408915  8.066510 13.627288
 Ni  0.991250 13.508768 13.514469
 Ni  2.778126 11.727945 13.542804
 Ni  0.986995 11.649129 11.720263
 Ni  6.432923 11.702322 13.584270
 Ni  6.410704 13.507595 11.731832
 Ni  4.635193 11.742718 11.772057
 Ni  0.944117  2.676916 13.529240
 Ni  4.624649  0.842408 11.724592
 Ni  6.440637  0.856047 13.546506
 Ni  6.460610  2.665683 11.707603
%endblock positions_abs_product 
%block positions_abs_intermediate 
     ang 
Al  8.223461  4.456804  0.928462
 Al 11.845943  4.470341  0.913989
 Al  8.220717  8.092445  0.970163
 Al 11.857043  8.085344  0.926403
 Al  8.308712 11.693562  0.846059
 Al 11.880678 11.685943  0.894479
 Al  8.247517  0.858961  0.912843
 Al 11.859650  0.857241  0.892384
 Al  8.221108  4.436867  4.527714
 Al 11.855248  4.475490  4.506018
 Al  8.282548  8.001489  4.509438
 Al 11.864080  8.079358  4.519724
 Al  8.403919 11.808642  4.532977
 Al 11.877773 11.683757  4.522709
 Al  8.308706  0.822031  4.451507
 Al 11.885951  0.865482  4.501368
 Al  8.240321  4.421926  8.115585
 Al 11.836874  4.488447  8.131150
 Al  8.218455  8.115402  8.110057
 Al 11.832975  8.074903  8.124093
 Al  8.301850 11.706214  8.199177
 Al 11.898270 11.676911  8.149776
 Al  8.351954  0.835305  8.239788
 Al 11.845926  0.851481  8.151157
 Al  8.250872  4.472204 11.761931
 Al 11.813384  4.491899 11.764743
 Al  8.202144  8.074935 11.767734
 Al 11.832426  8.078210 11.763386
 Al  8.229029 11.691410 11.775354
 Al 11.841639 11.668104 11.778424
 Al  8.244721  0.848926 11.751817
 Al 11.874944  0.847807 11.778346
 Al  4.767159  2.657409 13.544013
 Al  0.824850  0.873449 11.746735
 Al  2.799775  2.759448 11.633169
 Al  4.667660 13.543116 13.632462
 Al  2.781273 13.415021 11.673253
 Al  4.610697  9.984812 13.689764
 Al  0.994697  9.875140 13.547395
 Al  2.840014  2.679889  8.261841
 Al  0.863225 11.676183  8.274437
 Al  4.732740  9.963774  9.950271
 Al  2.777200  9.680769  8.158033
 Al  4.817903  6.180364  9.851292
 Al  4.707577  8.034566 11.865433
 Al  2.822886  6.264099  7.959065
 Al  0.830398  6.270126  9.937925
 Al  4.547650  0.849160  4.519902
 Al  6.376232  0.838886  6.442427
 Al  2.642142  0.783654  2.684154
 Al  0.904129  2.665449  6.269992
 Al  6.252147 11.806796  6.381056
 Al  0.892858 13.644177  6.280429
 Al  2.884596 11.708142  6.233309
 Al  6.241472  9.801461  4.488709
 Al  5.587966  6.232885  7.106352
 Al  2.786038  6.154115  4.586553
 Al  2.704592  2.724445  0.883245
 Al  6.290377 11.823736  2.651761
 Al  2.764813 11.719672  2.703045
 Al  2.807931  6.179585  0.828305
 Al  2.746743  6.170990 11.930523
 Al  2.780295  8.189687  2.702149
 Ni  8.198589  6.244994  2.724057
 Ni 10.040984  4.459822  2.721311
 Ni 10.035827  6.279979  0.941608
 Ni 11.863976  6.279097  2.720049
 Ni 13.668179  4.483028  2.699604
 Ni 13.649389  6.291265  0.919855
 Ni  8.176203  9.974979  2.827864
 Ni 10.038411  8.087384  2.730186
 Ni 10.047010  9.877593  0.934606
 Ni 11.868813  9.878673  2.726900
 Ni 13.691532  8.078837  2.723814
 Ni 13.677961  9.882774  0.920072
 Ni  8.251841 13.464514  2.703005
 Ni 10.080573 11.695075  2.697942
 Ni 10.050601 13.507393  0.897032
 Ni 11.869798 13.507797  2.681949
 Ni 13.659152 11.687317  2.709102
 Ni 13.671763 13.495646  0.883863
 Ni  8.227615  2.654847  2.730658
 Ni 10.075988  0.850467  2.691616
 Ni 10.034140  2.663571  0.905676
 Ni 11.855937  2.667714  2.686428
 Ni 13.679746  0.858984  2.675994
 Ni 13.667662  2.667160  0.896703
 Ni  8.193187  6.249074  6.337471
 Ni 10.033989  4.464617  6.319453
 Ni 10.046639  6.252914  4.514263
 Ni 11.834449  6.287302  6.301536
 Ni 13.653444  4.496060  6.309430
 Ni 13.681415  6.279606  4.505266
 Ni  8.177684  9.998432  6.215327
 Ni 10.009414  8.087387  6.318886
 Ni 10.058807  9.890953  4.525699
 Ni 11.859898  9.865992  6.330334
 Ni 13.681435  8.078793  6.318681
 Ni 13.687832  9.884934  4.534098
 Ni  8.245669 13.525238  6.360096
 Ni 10.087706 11.704571  6.350504
 Ni 10.116322 13.533967  4.520800
 Ni 11.891381 13.488897  6.337114
 Ni 13.701360 11.680712  6.335964
 Ni 13.648910 13.508501  4.483210
 Ni  8.250019  2.563191  6.332002
 Ni 10.092871  0.835174  6.330859
 Ni 10.058929  2.651619  4.521539
 Ni 11.855648  2.692155  6.324578
 Ni 13.605224  0.886174  6.347634
 Ni 13.627954  2.674910  4.471466
 Ni  8.179564  6.267976  9.886920
 Ni 10.029119  4.481917  9.938810
 Ni 10.009921  6.279040  8.121831
 Ni 11.845128  6.286756  9.943506
 Ni 13.624813  4.449370  9.945393
 Ni 13.619860  6.274403  8.089176
 Ni  8.199139  9.888573  9.951667
 Ni 10.004501  8.078437  9.934742
 Ni 10.026985  9.889884  8.120408
 Ni 11.824560  9.868242  9.943016
 Ni 13.641322  8.102812  9.945659
 Ni 13.667541  9.842005  8.141563
 Ni  8.257034 13.505955  9.965937
 Ni 10.054583 11.678124  9.972228
 Ni 10.081254 13.488907  8.152087
 Ni 11.855254 13.488539  9.968180
 Ni 13.632199 11.659157 10.006827
 Ni 13.661854 13.523332  8.166844
 Ni  8.263924  2.650481  9.944854
 Ni 10.087322  0.843681  9.988239
 Ni 10.069050  2.659406  8.133640
 Ni 11.831205  2.670767  9.955726
 Ni 13.627991  0.871672  9.929249
 Ni 13.633027  2.678210  8.153208
 Ni  8.234301  6.284211 13.611331
 Ni 10.027704  4.475812 13.583276
 Ni 10.016746  6.291083 11.755028
 Ni 11.821212  6.276192 13.591973
 Ni 13.644673  4.484096 13.573601
 Ni 13.618550  6.283478 11.796429
 Ni  8.224917  9.866879 13.596710
 Ni 10.031198  8.082491 13.591280
 Ni 10.020434  9.866125 11.765133
 Ni 11.856915  9.871161 13.573884
 Ni 13.654115  8.066145 13.574417
 Ni 13.650290  9.854190 11.745412
 Ni  8.237386 13.516242 13.556594
 Ni 10.056685 11.679176 13.558357
 Ni 10.053775 13.496604 11.770185
 Ni 11.845494 13.500308 13.569543
 Ni 13.671491 11.699977 13.540948
 Ni 13.639602 13.472283 11.756283
 Ni  8.223161  2.664748 13.571116
 Ni 10.043266  0.854896 13.564020
 Ni 10.043507  2.666560 11.768432
 Ni 11.843021  2.675702 13.576535
 Ni 13.636435  0.846218 13.582354
 Ni 13.601175  2.707849 11.761992
 Ni  1.032232  6.285753  2.708402
 Ni  2.796556  4.444176  2.716548
 Ni  0.954148  4.492298  0.893380
 Ni  4.558735  6.259151  2.742069
 Ni  6.375745  4.437666  2.740309
 Ni  4.596237  8.041436  0.930331
 Ni  4.638657  4.419709  0.922581
 Ni  0.989737  8.054584  0.916704
 Ni  0.962029  9.904208  2.711984
 Ni  4.610283  9.902973  2.665723
 Ni  6.375180  8.043038  2.736193
 Ni  6.434663  9.917527  0.963160
 Ni  2.758812  9.907103  0.892648
 Ni  0.939220 13.477569  2.708221
 Ni  4.543110 11.751680  0.909485
 Ni  2.752226 13.529696  0.856387
 Ni  4.560541 13.598812  2.693188
 Ni  4.611156 11.745049  4.478372
 Ni  6.435354 13.539348  0.911837
 Ni  0.970858  2.677469  2.688739
 Ni  4.566717  0.906212  0.904904
 Ni  0.987781  0.853432  0.843961
 Ni  4.577030  2.613907  2.709938
 Ni  6.415360  0.830205  2.689312
 Ni  6.421913  2.642510  0.956319
 Ni  2.782932  0.897544 13.474651
 Ni  0.969235  6.246685  6.300013
 Ni  2.804747  4.379177  6.337516
 Ni  0.964094  4.454404  4.488237
 Ni  6.427949  4.340612  6.309319
 Ni  6.370992  6.243333  4.536898
 Ni  4.605902  4.405093  4.530300
 Ni  1.045388  9.922287  6.364397
 Ni  2.802816  8.040508  6.281286
 Ni  2.808152  9.899473  4.516538
 Ni  1.019014  8.083343  4.520145
 Ni  4.585574  9.855534  6.325651
 Ni  6.440229  8.123615  6.305604
 Ni  4.532997  8.014447  4.526419
 Ni  0.925753  0.887756  4.488598
 Ni  0.978069 11.695277  4.538994
 Ni  4.550432 13.586721  6.353326
 Ni  6.410652 13.550921  4.532038
 Ni  2.749260 13.540582  4.526994
 Ni  2.741525  0.922673  6.385033
 Ni  2.782704  2.647607  4.480383
 Ni  4.612751  2.634205  6.324065
 Ni  6.405711  2.556434  4.525461
 Ni  0.964574  4.467760  8.122292
 Ni  6.456530  4.405554  9.934122
 Ni  4.653837  4.443730  8.111470
 Ni  1.017486  9.803634  9.966991
 Ni  0.974214  8.017119  8.124273
 Ni  2.884908  7.880812 10.030822
 Ni  6.378441  8.086492  9.936388
 Ni  6.439793  9.925084  8.088212
 Ni  4.650264  8.059408  8.095235
 Ni  0.956602 13.519416  9.970342
 Ni  2.779225 11.619634  9.908817
 Ni  2.693794 13.479196  8.097829
 Ni  4.592290 13.487204  9.920221
 Ni  6.426642 11.734746  9.960091
 Ni  6.407751 13.507435  8.182229
 Ni  4.512379 11.695324  8.160734
 Ni  0.949947  2.713092  9.961525
 Ni  2.756266  0.831406 10.013981
 Ni  0.972583  0.907555  8.203155
 Ni  4.649200  2.667577  9.957375
 Ni  6.405425  0.842432  9.949802
 Ni  6.422754  2.619791  8.154450
 Ni  4.560166  0.833250  8.199784
 Ni  0.939328  6.274631 13.589548
 Ni  2.819701  4.356405 13.550644
 Ni  2.797344  4.660652  9.923167
 Ni  0.939725  4.482649 11.761571
 Ni  4.650858  6.215888 13.579868
 Ni  6.443470  4.491710 13.573333
 Ni  6.453947  6.257967 11.770522
 Ni  4.665061  4.461578 11.746406
 Ni  0.974681 11.713717  0.886982
 Ni  2.827167  8.085078 13.560834
 Ni  2.893117  9.857540 11.717570
 Ni  1.000756  8.046934 11.760156
 Ni  6.391975  6.253147  0.941512
 Ni  6.392345  9.890151 11.816100
 Ni  6.410473  8.066875 13.633018
 Ni  0.989738 13.508009 13.513632
 Ni  2.773200 11.729560 13.543683
 Ni  0.986639 11.645257 11.715992
 Ni  6.433042 11.709339 13.591308
 Ni  6.415363 13.506915 11.733695
 Ni  4.637040 11.746107 11.774660
 Ni  0.942835  2.671195 13.525284
 Ni  4.628323  0.835079 11.727732
 Ni  6.443872  0.847944 13.552055
 Ni  6.466394  2.649604 11.723387
%endblock positions_abs_intermediate 
     kpoint_mp_grid 1 1 1 
     fix_com : false