#######################################################
#CASTEP cell file: /home/u2093113/Documents/kART/barriers/CASTEP/castep.cell
#Created using the Atomic Simulation Environment (ASE)#
#######################################################

%BLOCK LATTICE_CART
14.464828  0.000000  0.000000
 0.000000 14.464828  0.000000
 0.000000  0.000000 14.464828
%ENDBLOCK LATTICE_CART

%BLOCK POSITIONS_ABS
Ni  0.845017 11.821252 11.797076
Ni  0.837893 13.613448  9.994627
Ni  0.840032  0.957879 11.804782
Ni  0.827348  2.766704 10.011414
Ni  0.820133  4.582156 11.817684
Ni  0.835303  6.403967  9.999017
Ni  0.832269  8.215044 11.787251
Ni  0.840240 10.025824  9.991362
Ni  0.843108 11.827875  0.934470
Ni  0.850443 13.625238 13.602166
Ni  0.874435  0.965507  0.936490
Ni  0.843323  2.770684 13.601894
Ni  0.811327  4.599854  0.910874
Ni  0.811924  6.402464 13.581414
Ni  0.787335  8.204582  0.923085
Ni  0.817557 10.018745 13.583828
Ni  0.807958 11.834273  4.543012
Ni  0.842962 13.637660  2.740910
Ni  0.852034  0.948465  4.560412
Ni  0.853621  2.789212  2.729842
Ni  0.865859  4.605958  4.550117
Ni  0.779074  6.423903  2.724817
Ni  0.804032  8.233559  4.548653
Ni  0.804172 10.022914  2.738831
Ni  0.827080 11.819615  8.184557
Ni  0.818606 13.597963  6.375507
Ni  0.872346  0.949951  8.193438
Ni  0.957932  2.772447  6.394631
Ni  0.863709  4.592762  8.176785
Ni  0.808035  6.430254  6.364240
Ni  0.830916  8.232468  8.166428
Ni  0.807668 10.041701  6.356886
Ni  2.650949 13.609545 11.787222
Ni  4.448248 11.818872 11.784884
Ni  4.455296 13.600922  9.980998
Ni  2.627655 11.821807  9.978360
Ni  6.287993 13.617878 11.726680
Ni  8.020218 11.718208 11.736970
Ni  8.087558 13.593741  9.918412
Ni  6.243871 11.765623  9.966622
Ni  9.858845 13.549345 11.732297
Ni 11.693977 11.739398 11.730089
Al 13.685754 10.022324  8.113468
Ni  9.845105 11.762359  9.921702
Ni 13.508483 13.595771 11.770215
Ni 13.510162  2.830191 11.750790
Ni 13.557300 11.798433  9.955264
Ni  2.647286  2.775202 11.790212
Ni  4.463525  0.956062 11.811055
Ni  4.463430  2.791188 10.044399
Ni  2.637420  0.940765 10.018807
Ni  6.334503  2.772721 11.829348
Al  9.702935  8.138212  6.314521
Ni  9.902720  1.019335  9.954564
Ni  6.272395  0.994519 10.011960
Ni  9.883892  2.837801 11.758240
Al 11.692808 10.098514  6.292978
Al  6.093623  9.904116 11.700698
Al  6.420194  8.110312  6.346289
Ni 13.522887  4.615021 13.555508
Ni 11.721910  2.789317  9.945235
Ni  2.627729  6.383168 11.821708
Ni  4.436084  4.583077 11.828311
Al  6.087731  4.702736  6.363561
Ni  2.584356  4.579479 10.012773
Al  8.110212  9.948102  9.877491
Ni  8.089605  4.682795 11.793530
Al  4.342992  8.285737  8.137256
Ni  6.227688  4.625778  9.985074
Ni  9.900050  6.405685 11.741849
Ni 13.532053  4.594479  9.941915
Ni 11.698093  6.414426  9.893759
Al 13.598802  6.401373  8.190331
Ni 13.496644  6.442757 11.733739
Al 11.725490  6.345523  6.262550
Ni  2.655948 10.020083 11.800695
Ni  4.371928  8.167607 11.768717
Ni  4.394234 10.000109  9.946993
Ni  2.589638  8.211396  9.973031
Ni  6.193842  8.134468  9.937901
Ni  8.045480  8.154222 11.696830
Ni  6.184999  6.399432  8.187735
Ni  8.056502  8.138321  8.146863
Ni  9.878715  9.950037 11.721926
Ni 13.515955  8.241231  9.922968
Al  8.070642  2.922515 10.015378
Ni  9.909649  8.188023  9.882258
Ni 13.499426  9.961012 11.738120
Ni 11.731907  8.217859  8.042957
Ni  2.677423 13.614954  0.976404
Al  6.114195  2.744251  8.176788
Ni  4.443696 13.614690 13.589160
Ni  2.633374 11.809326 13.618681
Ni  6.235625 13.628697  0.941126
Ni  8.059596 11.788061  0.906467
Ni  8.106732 13.604952 13.561227
Al  2.626732  4.745151  6.356068
Ni  9.903510 13.586546  0.903929
Ni 11.720722 11.800600  0.949788
Al 13.661550 13.573446  8.144237
Ni  9.834648 11.719766 13.571632
Al  9.986936  2.800003  8.075627
Ni 13.557345 11.779409 13.566039
Ni  2.675137  2.800459  0.969074
Al  8.049564 13.655336  6.526237
Ni  4.472678  2.771298 13.589694
Ni  2.630568  0.971966 13.581966
Ni  6.288526  2.778166  0.869001
Ni  8.095170  0.990405  0.900982
Al  2.635345  0.809492  6.383793
Al  2.652901  2.761326  8.317053
Ni  9.953835  2.844148  0.971037
Ni  9.860151  0.970092 13.549894
Ni 11.685372  2.788106 13.544690
Ni 11.685734  0.951458 11.786243
Ni 13.480276  2.715538  0.925577
Al 11.796484 10.070503  2.887601
Ni  2.624006  6.443429  0.901286
Ni  4.453862  4.597153  0.933851
Ni  4.435976  6.398023 13.613418
Ni  2.617228  4.578577 13.619787
Ni  6.277317  6.432934  0.899171
Ni  8.139923  4.663564  0.942384
Al  4.454322  8.167118  4.456134
Ni  6.284719  4.620097 13.606943
Ni  9.912138  8.223687 13.582999
Al  2.570160 10.083946  4.537559
Al  9.884168  4.603336  2.789658
Ni  9.953952  4.687093 13.631197
Ni 13.508445  6.442948  0.972414
Al  8.026150  4.625973  4.604323
Ni 11.718484  6.460532 13.588860
Al  2.558986  4.721369  2.659775
Ni  4.428010  8.234385  0.936322
Ni  4.444642 10.035812 13.608840
Ni  2.602774  8.214456 13.595429
Ni  6.260873 10.030577  0.880874
Ni  8.083596  8.229943  0.943393
Al 13.632076  2.713395  4.662484
Ni  6.239438  8.209167 13.571513
Al 11.726676  2.676314  2.851130
Ni 11.776431  8.277407  0.975049
Ni 11.707230 10.005328 13.559992
Al  8.025588  1.066545  4.498381
Ni 13.532420 10.030876  0.969677
Al  4.589662  2.822644  2.724234
Al  2.591156  2.741346  4.523258
Ni  2.645909 13.597947  4.556898
Ni  4.479454 11.781861  4.558448
Al 13.682719 13.632690  4.572981
Ni  2.633936 11.819110  2.737443
Ni  6.357158 13.639060  4.596278
Ni  6.280313 11.797293  6.359481
Ni  8.080678 13.630716  2.720525
Ni  6.256481 11.818832  2.728952
Al 13.531234  2.819919  8.084738
Al 11.615231  0.994391  0.833631
Al 11.568171 13.561811  2.801747
Ni  9.860964 11.774768  2.746127
Al  8.027526 11.755266  4.500832
Al  4.492030 13.638928  2.920490
Ni 13.570260 11.852366  2.783806
Al 13.545451  8.227969 13.576102
Ni  4.470914  0.996634  4.565865
Ni  2.681396  0.985516  2.757211
Ni  6.224830  2.845459  4.604030
Al 11.651856  8.142142 11.727458
Ni  8.052175  2.826495  2.726186
Ni  6.254668  0.983922  2.710592
Ni  9.862778  2.778177  4.567263
Al  9.930075  9.995955  0.961857
Al  8.093429  9.898250 13.517644
Ni  9.868125  0.980778  2.729598
Ni 11.709372  0.883158  4.567913
Ni 13.507607  0.889163  2.719600
Ni  2.620820  6.440728  4.511309
Ni  4.369321  4.609711  4.499910
Ni  4.448431  6.398800  2.683414
Al  2.553291  9.940558  0.938492
Ni  6.257237  6.398530  4.528822
Ni  8.104028  6.409905  2.721372
Ni  6.282906  4.629234  2.724349
Ni  9.867838  6.390108  4.550593
Ni 11.731070  4.531867  4.532895
Ni 11.714814  6.393066  2.785537
Al  9.968810  6.582737  0.983085
Ni 13.543997  6.382285  4.565522
Ni 13.516544  4.535438  2.781367
Al 11.846894  4.600546  0.858580
Al  8.101082  6.448929 13.583304
Ni  4.418357 10.013438  2.723285
Ni  2.594785  8.205881  2.747053
Ni  6.244940  9.966997  4.529971
Ni  8.047507  8.196065  4.502900
Ni  8.070425 10.007158  2.716353
Ni  6.251625  8.199915  2.708876
Ni  9.881156 10.018033  4.564771
Ni 11.702289  8.217398  4.619440
Al 13.638544  1.036590 13.448314
Ni  9.940996  8.260079  2.783304
Ni 13.562162 10.048594  4.612021
Ni 13.537074  8.224825  2.819729
Ni  2.670065 13.588003  8.184539
Ni  4.457876 11.782001  8.137446
Ni  4.490708 13.600189  6.336665
Ni  2.633392 11.829067  6.355404
Ni  6.229397 13.641947  8.202107
Ni  8.027574 11.789795  8.166552
Ni  9.749900 13.643750  4.586271
Ni  6.232315  9.955412  8.159852
Ni  9.889012 13.651823  8.185707
Ni 11.739306 11.828895  8.125942
Ni 11.701429 11.905480  4.586633
Ni  9.811891 11.828632  6.352998
Ni 13.567895  0.901425  6.388877
Ni 13.581934 11.860883  6.355837
Al  6.284126  0.901693 13.556601
Ni  4.413070  0.947080  8.194558
Ni  4.313158  2.785846  6.370725
Al  8.181905  2.919473 13.629421
Ni  8.014729  2.822023  6.382412
Al  4.380866  0.947672  0.876738
Al 13.647393 13.513664  0.944729
Ni  6.243839  0.994425  6.387451
Ni  9.917273  4.591695  9.906374
Ni 11.788966  0.917236  8.222134
Ni 11.733609  2.737443  6.323006
Ni  9.837296  0.992712  6.377585
Al 11.604694 13.460801 13.467194
Ni  2.620241  6.434192  8.172704
Ni  4.368990  4.595386  8.179321
Ni  4.431328  6.503241  6.349809
Al  6.287561 11.921742 13.541894
Al  4.438993 11.822537  0.961885
Al 11.647231 10.057985  9.872586
Ni  8.016113  4.589514  8.093023
Ni  8.053385  1.071632  8.226868
Ni  9.903219  6.367443  8.065338
Ni 11.751933  4.608741  8.111344
Ni  9.863852  4.613008  6.312415
Al 11.716748  4.638102 11.765327
Ni 13.577678  4.603869  6.344450
Ni  2.619111 10.043056  8.136254
Al  8.128307  6.366491  9.892981
Ni  4.467479  9.947243  6.308010
Ni  2.600377  8.229735  6.303309
Al  6.169340  6.410251 11.823918
Al  4.316033  6.328610  9.980947
Ni  8.059192 10.004556  6.355455
Al 11.609534 13.538172 10.005537
Al 11.573627 13.626410  6.368265
Ni  9.901597  9.987107  8.079638
Al 13.606563  1.010451 10.112965
Al  8.173011  0.872418 11.703181
Ni 13.572691  8.195666  6.350385
%ENDBLOCK POSITIONS_ABS

FIX_ALL_CELL: TRUE
KPOINT_MP_GRID: 1 1 1
