#######################################################
#CASTEP cell file: /home/u2093113/Documents/kART/barriers/CASTEP/castep.cell
#Created using the Atomic Simulation Environment (ASE)#
#######################################################

%BLOCK LATTICE_CART
14.464828  0.000000  0.000000
 0.000000 14.464828  0.000000
 0.000000  0.000000 14.464828
%ENDBLOCK LATTICE_CART

%BLOCK POSITIONS_ABS
Ni  8.211586  6.243634 13.560790
Ni 10.035771  4.453347 13.568136
Ni 10.027782  6.269863 11.764871
Al  8.247345  4.454617 11.765193
Ni 11.827014  6.270813 13.567861
Ni 13.634130  4.468992 13.562339
Ni 13.632407  6.276527 11.758411
Al 11.834513  4.467282 11.756966
Ni  8.149427  9.933233 13.615751
Ni 10.016988  8.082498 13.566675
Ni 10.018323  9.875722 11.771647
Al  8.229420  8.080676 11.778419
Ni 11.836348  9.882367 13.563884
Ni 13.630269  8.078044 13.564859
Ni 13.636891  9.879893 11.757309
Al 11.826447  8.076563 11.763547
Ni  8.215105 13.484116 13.537095
Ni 10.047131 11.695721 13.551624
Ni 10.053658 13.508558 11.743597
Al  8.300828 11.697020 11.711256
Ni 11.852807 13.502013 13.552136
Ni 13.638183 11.687944 13.558936
Ni 13.644777 13.496082 11.751690
Al 11.838965 11.685293 11.752512
Ni  8.219001  2.652187 13.561441
Ni 10.053268  0.843020 13.546022
Ni 10.038107  2.655777 11.752313
Al  8.261008  0.847520 11.761098
Ni 11.844514  2.655351 13.557945
Ni 13.643831  0.846218 13.556708
Ni 13.642627  2.661753 11.754285
Al 11.849888  0.850059 11.748044
Ni  8.192854  6.248572  2.769872
Ni 10.042125  4.438552  2.706936
Ni 10.027655  6.244612  0.919726
Al  8.235788  4.437214  0.915526
Ni 11.834976  6.269401  2.713192
Ni 13.634341  4.466819  2.717524
Ni 13.628679  6.275140  0.907366
Al 11.840315  4.457336  0.905864
Ni  8.156022  9.940972  2.654437
Ni 10.033688  8.089377  2.706335
Ni 10.031720  9.891025  0.903911
Al  8.295216  8.013687  0.907337
Ni 11.841989  9.892041  2.708434
Ni 13.627342  8.081110  2.715776
Ni 13.635346  9.883932  0.905153
Al 11.825268  8.076300  0.904578
Ni  8.208271 13.525390  2.749024
Ni 10.048671 11.711182  2.721075
Ni 10.070957 13.521582  0.902651
Al  8.336301 11.766373  0.911937
Ni 11.860597 13.503339  2.718348
Ni 13.642142 11.690714  2.716204
Ni 13.643553 13.498638  0.902780
Al 11.845735 11.696658  0.902456
Ni  8.221205  2.590716  2.722744
Ni 10.052094  0.832829  2.719958
Ni 10.047087  2.643883  0.904345
Al  8.290450  0.835959  0.857362
Ni 11.854593  2.645076  2.710891
Ni 13.651092  0.843219  2.717181
Ni 13.642086  2.655987  0.903567
Al 11.855361  0.846836  0.901036
Ni  8.252709  6.272183  6.287517
Ni 10.066964  4.460104  6.344255
Ni 10.045604  6.269723  4.515219
Al  8.338100  4.376688  4.521088
Ni 11.835904  6.279384  6.336895
Ni 13.637538  4.473995  6.338206
Ni 13.630316  6.278615  4.526775
Al 11.844174  4.463350  4.524614
Ni  8.221234  9.900088  6.352451
Ni 10.040312  8.089801  6.338440
Ni 10.050388  9.905850  4.513403
Al  8.314364  8.156875  4.503831
Ni 11.843127  9.883582  6.340381
Ni 13.632592  8.081018  6.335425
Ni 13.633455  9.883879  4.527065
Al 11.829914  8.084430  4.521269
Ni  8.248837 13.490860  6.362486
Ni 10.062294 11.689577  6.360217
Ni 10.077655 13.499371  4.543554
Al  8.313945 11.699792  4.565198
Ni 11.865344 13.493226  6.351831
Ni 13.646755 11.685179  6.340609
Ni 13.650649 13.496016  4.532082
Al 11.852061 11.693383  4.531040
Ni  8.264169  2.643417  6.356045
Ni 10.089592  0.837489  6.368859
Ni 10.092313  2.632761  4.533042
Al  8.343429  0.840571  4.611128
Ni 11.863174  2.656109  6.351371
Ni 13.652658  0.843406  6.343571
Ni 13.639121  2.656736  4.529677
Al 11.865016  0.837452  4.534168
Ni  8.211715  6.275218  9.968783
Ni 10.030362  4.466220  9.956809
Ni 10.023482  6.280403  8.143512
Al  8.280560  4.464810  8.141422
Ni 11.829886  6.276306  9.954546
Ni 13.640509  4.473911  9.951220
Ni 13.636217  6.279332  8.144790
Al 11.839639  4.474403  8.153363
Ni  8.206675  9.883466  9.948836
Ni 10.021639  8.077254  9.961578
Ni 10.037482  9.878907  8.152404
Al  8.242748  8.077997  8.150405
Ni 11.835121  9.875070  9.958863
Ni 13.635816  8.078050  9.953796
Ni 13.640069  9.878439  8.147632
Al 11.832005  8.077319  8.149879
Ni  8.224320 13.508252  9.936475
Ni 10.050302 11.686784  9.942022
Ni 10.059329 13.495061  8.156712
Al  8.247643 11.688205  8.152238
Ni 11.853767 13.499658  9.951552
Ni 13.642623 11.684060  9.953363
Ni 13.654314 13.494606  8.149767
Al 11.853021 11.683285  8.153963
Ni  8.218904  2.643974  9.944322
Ni 10.044453  0.847807  9.948532
Ni 10.057192  2.655578  8.158211
Al  8.273163  0.840116  8.134696
Ni 11.848243  2.661322  9.954339
Ni 13.652646  0.846686  9.951237
Ni 13.649952  2.663462  8.148900
Al 11.862815  0.845248  8.159607
Ni  1.012076  6.228842 13.481829
Ni  2.758701  4.420147 13.500648
Al  4.754598  2.646350  9.884382
Ni  0.926061  4.414711 11.683325
Ni  4.505182  6.249113 13.529198
Ni  6.400837  4.435280 13.566167
Ni  4.580950  8.058785 11.735407
Ni  4.626438  4.410410 11.727433
Al  0.810514  0.830320  8.067590
Ni  0.946364  8.111349 11.646385
Ni  0.945801  9.946072 13.537005
Al  2.782536  2.747711  8.029934
Ni  4.554006  9.892230 13.509434
Ni  6.391026  8.065255 13.554378
Ni  6.417784  9.909096 11.780850
Ni  2.757990  9.920744 11.709124
Ni  0.963144 13.511384 13.530280
Ni  4.583219 11.737078 11.735452
Ni  2.758459 13.538448 11.678994
Al  4.655529 13.526363  9.962563
Ni  4.543156 13.572241 13.526381
Ni  4.603658 11.717958  0.875244
Ni  6.427140 13.527884 11.746230
Al  2.788300 13.445525  8.018331
Ni  0.945225  2.610273 13.501085
Ni  4.570820  0.894248 11.706916
Ni  0.968625  0.836526 11.653096
Ni  4.549372  2.608899 13.528471
Ni  6.405182  0.835021 13.565131
Ni  6.433810  2.642597 11.759952
Ni  2.795429  0.879508  9.808214
Ni  0.938944  6.224886  2.727408
Ni  2.780956  4.445003  2.732936
Al  4.606351  9.939218  9.986168
Ni  0.905662  4.388857  0.885189
Al  1.081330  9.944315  9.814694
Ni  6.448929  4.443473  2.736234
Ni  6.416380  6.259368  0.877000
Ni  4.608451  4.429240  0.876965
Ni  1.025110  9.890950  2.748420
Ni  2.764235  7.985347  2.664297
Ni  2.769438  9.878152  0.885708
Ni  0.950087  8.073050  0.877484
Ni  4.560404  9.813482  2.735810
Ni  6.423487  8.045187  2.712231
Al  2.861448  2.733811  4.663697
Ni  4.520077  7.998441  0.849077
Ni  0.971322  0.874436  0.911179
Al  0.962979 11.657492  4.560586
Ni  1.018015 11.772789  0.957260
Ni  4.555285 13.565638  2.747261
Ni  6.413936 13.541911  0.928132
Ni  2.773784 13.561094  0.912358
Al  4.702269  9.915323  6.335413
Al  2.783236  9.653924  4.536228
Ni  2.819737  0.933066  2.762202
Ni  2.755891  2.663990  0.878437
Ni  4.590860  2.680147  2.752536
Ni  6.411094  2.613990  0.925848
Al  6.367088  6.259962  4.637932
Al  4.744146  7.939808  8.114192
Al  2.791250  6.260542  4.502514
Al  0.884270  6.287336  6.343948
Ni  0.925418  4.471020  4.551899
Ni  6.485618  4.454528  6.316562
Ni  4.637620  4.533023  4.560554
Al  4.594392  0.888672  0.899837
Al  6.359658  0.840965  2.826781
Al  2.697548  0.790436 13.521207
Ni  0.947915  9.821275  6.343632
Al  0.981752  2.673164  2.765006
Ni  0.908454  8.037348  4.546257
Ni  2.836756  7.931113  6.396225
Ni  6.467441  8.082558  6.314708
Ni  6.429865  9.891571  4.488202
Ni  4.630946  7.985516  4.567115
Al  6.264556 11.771465  2.747922
Ni  0.937933 13.479257  6.307399
Ni  2.787802 11.608891  6.275907
Ni  2.769269 13.498620  4.554328
Al  1.028062 13.674391  2.771494
Ni  4.601991 13.477533  6.332705
Ni  6.448553 11.701917  6.304115
Ni  6.423633 13.502583  4.552922
Ni  4.565551 11.653964  4.531118
Al  2.909501 11.690724  2.632243
Ni  0.934785  2.686205  6.317476
Ni  2.763928  0.859602  6.377000
Al  6.244164  9.765260  0.903502
Ni  0.987737  0.901714  4.566781
Ni  4.630786  2.689435  6.367250
Ni  6.452875  0.837424  6.316124
Ni  6.430219  2.656772  4.553356
Ni  4.595980  0.869163  4.593351
Ni  0.952944  6.237373  9.893744
Ni  2.812528  4.381270  9.897773
Ni  2.795150  4.587670  6.337545
Ni  0.900045  4.457650  8.082775
Ni  4.633848  6.241511  9.938301
Ni  6.472075  4.461586  9.946614
Ni  6.474236  6.244001  8.097425
Ni  4.675022  4.510645  8.099984
Al  4.664937  6.226206  2.612686
Ni  0.979899 11.726316 11.682526
Ni  2.816257  8.065561  9.911746
Ni  2.884941  9.831780  8.089811
Ni  0.934043  8.062234  8.132787
Al  2.658413  6.146471  0.872604
Ni  6.394839  6.249583 11.783143
Ni  6.406508  9.878929  8.159313
Ni  6.420152  8.080797  9.983344
Al  2.707185  2.691431 11.665415
Ni  0.989938 13.482974  9.835413
Ni  2.826160 11.729348  9.887391
Al  6.272380 11.787699 13.533455
Ni  0.961613 11.676230  8.063898
Al  2.782267 11.730539 13.555138
Ni  6.427788 11.707213  9.968923
Ni  6.431296 13.506007  8.128535
Ni  4.646022 11.704937  8.129140
Al  2.767739  6.164998 11.633410
Al  2.783939  6.166907  8.229313
Ni  0.955599  2.638608  9.838803
Al  2.716758  8.178194 13.497502
Ni  4.634673  0.837958  8.109698
Ni  6.452911  0.836248  9.938510
Ni  6.458963  2.656063  8.108973
%ENDBLOCK POSITIONS_ABS

FIX_ALL_CELL: TRUE
KPOINT_MP_GRID: 1 1 1
