#######################################################
#CASTEP cell file: /home/u2093113/Documents/kART/barriers/CASTEP/castep.cell
#Created using the Atomic Simulation Environment (ASE)#
#######################################################

%BLOCK LATTICE_CART
14.464828  0.000000  0.000000
 0.000000 14.464828  0.000000
 0.000000  0.000000 14.464828
%ENDBLOCK LATTICE_CART

%BLOCK POSITIONS_ABS
Ni 13.604846  2.695017 11.806026
Al 13.643244  0.895608 10.005264
Ni 13.602577  6.417845 11.780515
Al 13.629043  4.538293 10.003389
Ni 13.605412  9.901603 11.771375
Al 13.698173  8.148154  9.918697
Ni 13.612784 13.537906 11.787209
Al 13.650588 11.735950  9.989245
Ni 11.842089  2.702083  2.727638
Al 13.622946  0.867412 13.596094
Ni 13.576222  6.383028  0.959222
Al 13.618217  4.549614 13.596476
Ni 13.583509  9.941473  0.979850
Al 13.724898  8.171019 13.619106
Ni 13.601220 13.495163  0.955036
Al 13.675092 11.721573 13.553585
Ni 13.608744  2.717608  4.544221
Al 13.654770  0.885063  2.738248
Ni 13.599281  6.316954  4.563825
Al 13.633025  4.532601  2.718026
Ni 13.627918  9.929913  4.589573
Al 13.683974  8.136453  2.805963
Ni 13.637052 13.564223  4.570856
Al 13.718910 11.739053  2.838021
Ni 13.596950  2.724280  8.203718
Al 13.669119  0.902578  6.372934
Ni 13.609859  6.324797  8.170675
Al 13.644575  4.519727  6.385786
Ni 13.615763  9.951570  8.152412
Al 13.649681  8.130956  6.367503
Ni 13.608153 13.544530  8.179676
Al 13.659623 11.750751  6.357110
Ni  0.895875  0.904402 11.791924
Ni  0.898414  2.689041  9.991428
Ni  2.736450  2.706844 11.732136
Ni  4.466138  0.808451 11.736853
Ni  4.531969  2.701862  9.909290
Ni  2.689273  0.860549  9.972705
Ni  6.299336  2.637062 11.737584
Ni  8.134533  0.821158 11.736911
Al 10.134276 13.575833  8.122733
Ni  6.289198  0.856077  9.927465
Ni  9.952561  2.678333 11.780480
Ni 11.807038  0.854465 11.798937
Ni  9.955250  6.381535 11.759696
Ni 10.003384  0.882836  9.966388
Ni  0.909532  4.507562 11.818444
Ni  0.901864  6.339153 10.051105
Ni  2.777444  6.326850 11.829464
Al  6.191754 11.731884  6.331055
Ni  6.345486  4.569010  9.962150
Ni  2.717684  4.545871 10.014471
Ni  6.326278  6.392057 11.758847
Al  8.150877 13.666472  6.299417
Al  2.542407 13.449451 11.697031
Al  2.803214 11.734007  6.358033
Ni  9.963335  8.166600 13.561476
Ni 11.865774  4.562594 11.797277
Ni 11.812312  6.380156  9.977652
Ni  8.171687  6.335955  9.954844
Ni  0.884521  8.136384 11.825730
Al  2.476391  8.243068  6.363600
Al  4.556001 13.505314  9.878663
Ni  4.530495  8.236306 11.781911
Al  0.771098 11.843623  8.146299
Ni  2.673118  8.169753  9.964359
Ni  6.336087  9.948357 11.727053
Ni  9.981799  8.141740  9.949254
Ni  8.147931  9.958678  9.896249
Al 10.048489  9.949039  8.194028
Ni  9.940809  9.990818 11.739067
Ni 11.821064  6.410829 13.594400
Ni 11.819207  9.944058  9.971672
Al  8.172969  9.886513  6.268966
Ni  0.821040 11.714800 11.766948
Ni  0.835799 13.556233  9.953620
Ni  2.638986 11.682386  9.924857
Ni  4.489985 11.686802 11.678607
Ni  2.619843  9.945589  8.181819
Ni  4.497953 11.724241  8.149858
Ni  6.319202 13.491967 11.718722
Ni  9.961628 11.789534  9.927725
Al  4.510663  6.464341 10.020015
Ni  6.349197 11.728639  9.870428
Ni  9.940597 13.506080 11.743957
Ni 11.795860 11.720212 11.785688
Ni 11.822068 13.541633  9.991512
Ni  8.181508 11.767803  8.048086
Al  2.523326  6.282428  8.175760
Ni  0.892864  2.700213 13.594207
Ni  2.683765  2.714527  0.944125
Ni  4.504378  0.870119  0.911537
Ni  4.551328  2.689919 13.566807
Ni  6.346176  2.670325  0.905398
Ni  8.159908  0.877938  0.951098
Al 10.113786  2.656479  8.155054
Ni  6.274921  0.798356 13.574567
Al  6.462502  6.324861  8.083631
Ni 11.842771  0.843129  0.933495
Ni 11.794620  2.690549 13.573568
Ni  9.997597  0.857898 13.570846
Al  4.496795  2.748178  6.536467
Ni  0.920448  6.326781 13.593476
Ni  2.734864  6.332989  0.877178
Ni  4.539811  4.543283  0.903291
Ni  6.394576  6.399121  0.978906
Ni  6.301794  4.524384 13.554412
Ni  8.124841  6.343333 13.548831
Ni  8.129101  4.502500 11.795218
Ni  9.923202  6.267599  0.927309
Ni 13.584008  2.707452  0.919701
Al  8.235857 13.617331  2.893644
Ni 11.783863  4.535719  0.895743
Ni  0.903871  8.147747  0.944083
Ni  0.888774  9.947229 13.615113
Ni  2.725880  9.979881  0.914513
Ni  4.582941  8.215044  0.955308
Al  0.885821 11.725914  4.456291
Ni  2.731511  8.174514 13.608596
Ni  6.349559 11.762323 13.582105
Al  6.319892  8.152474  2.814242
Ni  6.391878  8.241265 13.631756
Ni  9.948777  9.991869  0.977474
Al  4.468961  8.082135  4.650252
Ni 11.801853  9.963920 13.623959
Ni  8.155571 10.008131 13.591816
Ni  0.879940 11.782655  0.943300
Ni  0.896109 13.581201 13.611303
Ni  2.710600 13.574434  0.887279
Ni  4.525063 11.771095  0.953366
Al 10.081583  6.256305  4.660601
Ni  2.688414 11.751139 13.569526
Al  8.172318  6.225187  2.851947
Ni  8.211202 11.821032  0.984159
Ni  8.143964 13.545289 13.562993
Al  4.473701  4.633263  4.524611
Ni  9.971858 13.573474  0.973119
Al  1.040132  6.370312  2.736148
Ni 11.798452 13.492033 13.606012
Ni  0.920745  0.877213  4.558619
Al 10.131921  2.714468  4.571003
Ni  2.801943  2.730763  4.600656
Ni  2.720324  0.893170  6.365783
Ni  4.526293  2.723817  2.728040
Ni  2.703984  0.907794  2.732847
Al  9.980614  6.362118  8.092806
Al  8.057415  4.546891  0.833072
Al  8.013881  2.644839  2.797509
Ni  6.303434  0.860732  2.749352
Al  4.473717  0.852417  4.507173
Ni 11.868525  0.896900  4.553822
Al  0.937546  2.726435  2.919657
Ni 10.013731  0.933709  2.782001
Al  9.983959 11.772945 13.580538
Ni  0.911401  4.543551  4.567544
Al 11.742019 11.735796  1.052491
Ni  2.681590  6.383426  4.648666
Al  8.089945 11.684363 11.725864
Ni  4.494479  6.366435  2.735533
Ni  2.700145  4.533091  2.715692
Ni  6.310898  6.310766  4.578937
Al  6.367225 13.534691  0.969306
Al  4.538118 13.437142 13.514033
Ni  6.315689  4.527236  2.728487
Ni  8.164306  4.423464  4.563915
Ni 11.846266  4.515609  4.539227
Ni 11.777422  6.320218  2.742005
Ni  9.954475  4.437117  2.716327
Ni  0.801733  8.157991  4.499121
Ni  0.890455  9.950000  2.689585
Ni  2.684543  9.951943  4.537638
Al 11.637860  8.153680  0.951145
Ni  4.545436  9.945997  2.757464
Ni  2.730597  8.175415  2.749385
Ni  6.318236  9.928409  4.573860
Ni  8.182887  8.076015  4.537139
Ni  8.155538  9.939716  2.794536
Al  6.403133 10.128224  0.995327
Ni  9.989818  9.930728  4.570951
Ni 11.821581  8.125022  4.545051
Ni 11.801575  9.925724  2.779803
Ni  9.961959  8.084906  2.783676
Al  8.283493  8.152551  0.866197
Al  4.542241  9.994851 13.583787
Ni  0.864391 13.566902  2.725900
Ni  2.686124 13.530157  4.535554
Ni  4.489440 11.753247  4.538259
Ni  4.514876 13.556272  2.728263
Ni  2.702632 11.747257  2.729864
Ni  6.326352 13.574364  4.573567
Ni  8.148495 11.766270  4.628603
Al 10.081790  4.586846 13.453195
Ni  6.373265 11.798862  2.806351
Ni 10.007882 13.600296  4.614020
Ni 11.834394 11.744170  4.546275
Ni 11.810278 13.551309  2.783588
Ni  9.978861 11.772662  2.824721
Ni  0.897190  0.881821  8.147187
Ni  0.936704  2.694422  6.340429
Ni  2.674377  2.738910  8.206430
Ni  4.473128  0.887645  8.174268
Ni  6.198949  2.732719  4.588351
Ni  2.667845 13.524365  8.169835
Ni  6.336355  2.749019  8.191149
Ni  8.188274  0.924731  8.137325
Ni  8.148828  0.996630  4.586725
Ni  6.262547  0.925126  6.359956
Ni 10.020646  4.441992  6.391527
Ni 11.874465  0.891255  8.184439
Ni 11.877452  2.708363  6.373994
Ni 10.031548  0.951685  6.360937
Al  2.730032  4.456990 13.562893
Ni  0.843748  4.487206  8.201562
Ni  0.739930  6.323957  6.373336
Al  4.624879  6.478074 13.631445
Ni  4.449646  7.959460  8.019631
Al  0.828089  4.501643  0.880418
Al 10.089239  2.595603  0.943866
Ni  2.703885  4.563163  6.392231
Ni  6.355272  8.131922  9.889727
Ni  8.250117  4.454886  8.235926
Ni  8.195327  6.266472  6.324591
Ni  6.277697  4.554151  6.376760
Al  8.044457  2.544089 13.471378
Ni 11.806527  2.698522 10.022049
Ni 11.834405  6.316251  6.384130
Ni 11.791974  4.537334  8.230286
Ni  0.792810  8.149090  8.185156
Ni  0.855550 10.063008  6.353894
Al  2.737515  1.001938 13.543931
Al  0.889122  0.906428  0.963522
Al  8.091267 13.608306  9.877826
Ni  4.474064  9.880819  6.385474
Ni  4.498929  4.687932  8.186370
Ni  6.365464  9.901350  8.068657
Ni  8.210715  8.152189  8.116970
Al 11.680225  8.199685 11.791937
Ni  6.338293  8.095606  6.321662
Al  8.157360  8.188640 11.765507
Ni 11.821681  8.146120  8.170338
Ni 11.817944  9.949097  6.354180
Ni 10.026834  8.146595  6.347164
Al  4.566381  9.882704  9.827739
Ni  0.889672 13.523305  6.313696
Al  2.622424  9.955580 11.807080
Al  0.758361  9.879078  9.978456
Ni  4.505268 13.577693  6.363784
Al  8.055309  2.625583 10.018092
Al  8.023656  2.716169  6.373117
Ni  6.351979 13.550398  8.087427
Al 10.056230  4.558114 10.126910
Al  4.616304  4.426133 11.712449
Ni 10.018465 11.747414  6.355869
Ni 11.837544 11.740212  8.171244
Ni 11.845149 13.555216  6.343938
%ENDBLOCK POSITIONS_ABS

FIX_ALL_CELL: TRUE
KPOINT_MP_GRID: 1 1 1
