#######################################################
#CASTEP cell file: /home/u2093113/Documents/kART/barriers/CASTEP/castep.cell
#Created using the Atomic Simulation Environment (ASE)#
#######################################################

%BLOCK LATTICE_CART
14.464828  0.000000  0.000000
 0.000000 14.464828  0.000000
 0.000000  0.000000 14.464828
%ENDBLOCK LATTICE_CART

%BLOCK POSITIONS_ABS
Ni  8.191803  6.245429  2.758706
Ni 10.039179  4.458798  2.726235
Ni 10.017727  6.274888  0.931490
Al  8.242153  4.464167  0.941074
Ni 11.833353  6.276513  2.718684
Ni 13.637902  4.475947  2.711131
Ni 13.632022  6.282734  0.905989
Al 11.831519  4.478781  0.906420
Ni  8.161942  9.947644  2.773467
Ni 10.021214  8.086785  2.727511
Ni 10.022047  9.875743  0.925476
Al  8.228764  8.081685  0.961445
Ni 11.842327  9.885360  2.713291
Ni 13.633631  8.082730  2.714544
Ni 13.635989  9.880603  0.903971
Al 11.822831  8.076966  0.913774
Ni  8.234092 13.492479  2.679035
Ni 10.062676 11.703439  2.698252
Ni 10.065724 13.515891  0.886064
Al  8.315230 11.705774  0.863126
Ni 11.863027 13.507578  2.696100
Ni 13.640273 11.691747  2.705885
Ni 13.645604 13.501414  0.896471
Al 11.842992 11.686374  0.896200
Ni  8.227331  2.649457  2.715416
Ni 10.068921  0.847955  2.688972
Ni 10.040126  2.668563  0.902474
Al  8.271354  0.856045  0.908135
Ni 11.851361  2.663384  2.704408
Ni 13.646593  0.853232  2.702900
Ni 13.642930  2.672549  0.900207
Al 11.854696  0.860912  0.890284
Ni  8.226844  6.252054  6.331572
Ni 10.052265  4.435278  6.314316
Ni 10.044419  6.251546  4.531209
Al  8.242388  4.427999  4.529855
Ni 11.836946  6.276355  6.330117
Ni 13.636675  4.473165  6.336473
Ni 13.632422  6.280858  4.524844
Al 11.849364  4.460706  4.521131
Ni  8.166947  9.972421  6.264145
Ni 10.036966  8.103350  6.316402
Ni 10.041903  9.903251  4.519818
Al  8.293893  8.028563  4.521678
Ni 11.847066  9.897979  6.328939
Ni 13.631660  8.086755  6.334609
Ni 13.639769  9.889621  4.522177
Al 11.833871  8.084646  4.522202
Ni  8.226751 13.529984  6.368245
Ni 10.061586 11.720125  6.341286
Ni 10.093352 13.527490  4.516221
Al  8.355591 11.788606  4.523210
Ni 11.870666 13.506602  6.340918
Ni 13.645407 11.694947  6.337405
Ni 13.646087 13.503397  4.518892
Al 11.856115 11.701442  4.518709
Ni  8.242032  2.565668  6.328960
Ni 10.070521  0.830885  6.339436
Ni 10.061537  2.639608  4.516671
Al  8.313149  0.825356  4.465916
Ni 11.861858  2.649023  6.329661
Ni 13.653768  0.848582  6.338364
Ni 13.646292  2.661639  4.519660
Al 11.867723  0.851449  4.515467
Ni  8.185234  6.281432  9.842407
Ni 10.042668  4.479985  9.946856
Ni 10.035503  6.276947  8.118148
Al  8.329301  4.380881  8.106432
Ni 11.828353  6.286292  9.948007
Ni 13.637774  4.483861  9.955191
Ni 13.632709  6.284727  8.144043
Al 11.841659  4.472669  8.141219
Ni  8.203853  9.891353  9.961566
Ni 10.017130  8.083791  9.940371
Ni 10.044248  9.907429  8.129768
Al  8.291655  8.160406  8.096559
Ni 11.836367  9.877639  9.957655
Ni 13.633434  8.083405  9.952315
Ni 13.636013  9.886758  8.147846
Al 11.828296  8.088235  8.136916
Ni  8.253603 13.496512  9.988755
Ni 10.058829 11.686326  9.981920
Ni 10.087485 13.502187  8.168901
Al  8.319863 11.710385  8.188144
Ni 11.865357 13.496624  9.974948
Ni 13.644996 11.685809  9.961761
Ni 13.650865 13.500276  8.155662
Al 11.854012 11.693358  8.155598
Ni  8.259331  2.655566  9.963471
Ni 10.091762  0.848160  9.990720
Ni 10.093686  2.639541  8.148495
Al  8.355719  0.837100  8.233135
Ni 11.856840  2.673713  9.969503
Ni 13.649307  0.852833  9.964592
Ni 13.639388  2.665346  8.150655
Al 11.868704  0.844889  8.158459
Ni  8.206248  6.281036 13.600620
Ni 10.016589  4.480710 13.573492
Ni  9.993242  6.288328 11.743787
Al  8.259624  4.483391 11.745404
Ni 11.816758  6.282910 13.566812
Ni 13.637483  4.485086 13.563587
Ni 13.633587  6.285684 11.759372
Al 11.826210  4.491474 11.763672
Ni  8.209979  9.885556 13.577188
Ni 10.006816  8.075390 13.579755
Ni 10.023326  9.868985 11.764438
Al  8.221242  8.075675 11.756590
Ni 11.829289  9.869358 13.569730
Ni 13.632642  8.079183 13.566586
Ni 13.637421  9.876218 11.763026
Al 11.819101  8.073840 11.760674
Ni  8.232161 13.516543 13.550844
Ni 10.053560 11.686277 13.553875
Ni 10.061737 13.500439 11.774193
Al  8.249494 11.688748 11.772238
Ni 11.855657 13.505399 13.561199
Ni 13.640083 11.684623 13.565029
Ni 13.652220 13.499677 11.766282
Al 11.849227 11.679092 11.769085
Ni  8.217342  2.658648 13.564939
Ni 10.046963  0.861841 13.559469
Ni 10.046711  2.676860 11.770571
Al  8.275329  0.852441 11.752660
Ni 11.843664  2.678951 13.565035
Ni 13.650913  0.857082 13.562655
Ni 13.646828  2.677145 11.764078
Al 11.860204  0.859316 11.775604
Ni  1.053468  6.236669  2.701955
Ni  2.776310  4.432670  2.701083
Al  4.756936  2.650503 13.518817
Ni  0.939016  4.431320  0.870387
Ni  4.515389  6.254547  2.719261
Ni  6.397218  4.440302  2.757654
Ni  4.585902  8.065506  0.914616
Ni  4.630763  4.415566  0.907177
Al  0.811059  0.843629 11.693146
Ni  0.955118  8.107357  0.838110
Ni  0.942664  9.950256  2.702721
Al  2.784799  2.757751 11.644662
Ni  4.557876  9.910154  2.666928
Ni  6.390819  8.063777  2.743967
Ni  6.428522  9.922113  0.960589
Ni  2.752036  9.929637  0.892225
Ni  0.948715 13.518099  2.677339
Ni  4.582535 11.758075  0.901621
Ni  2.750709 13.549608  0.830294
Al  4.656067 13.534502 13.584708
Ni  4.542961 13.583127  2.671804
Ni  4.606160 11.746422  4.483496
Ni  6.436209 13.540123  0.892453
Al  2.788306 13.451930 11.648925
Ni  0.945354  2.619212  2.666807
Ni  4.570863  0.900288  0.861419
Ni  0.965021  0.852202  0.808222
Ni  4.553702  2.601811  2.691759
Ni  6.415527  0.827949  2.709025
Ni  6.437396  2.648834  0.927016
Ni  2.794175  0.894998 13.431491
Ni  0.949174  6.232376  6.328624
Ni  2.773383  4.359004  6.333519
Al  4.607794  9.974664 13.656605
Ni  0.925113  4.399665  4.515554
Al  1.081697  9.940727 13.447302
Ni  6.459400  4.377892  6.303345
Ni  6.340184  6.254359  4.595973
Ni  4.615207  4.407194  4.538989
Ni  1.016250  9.920505  6.365818
Ni  2.770774  8.064525  6.264486
Ni  2.768558  9.914570  4.496021
Ni  0.959229  8.079981  4.508018
Ni  4.571287  9.873804  6.337435
Ni  6.426183  8.112062  6.278083
Al  2.854801  2.699927  8.274187
Ni  4.538008  8.023893  4.504472
Ni  0.952077  0.863079  4.524016
Al  0.958843 11.673994  8.187148
Ni  1.003500 11.790314  4.573934
Ni  4.557691 13.574593  6.364847
Ni  6.429461 13.548554  4.539270
Ni  2.765154 13.567961  4.526849
Al  4.710494  9.917069  9.957757
Al  2.791735  9.693671  8.150207
Ni  2.805697  0.919897  6.379228
Ni  2.752033  2.628695  4.488777
Ni  4.600102  2.612127  6.352507
Ni  6.423630  2.574950  4.530903
Al  4.701818  6.185566  9.950431
Al  4.738456  8.042269 11.851070
Al  2.868954  6.250724  7.914100
Al  0.953951  6.293990  9.902248
Ni  0.938271  4.468243  8.144934
Ni  6.491804  4.469521  9.879237
Ni  4.647750  4.470641  8.082515
Al  4.598456  0.865829  4.508111
Al  6.379786  0.821352  6.436749
Al  2.689483  0.786327  2.672093
Ni  0.960913  9.823956  9.957570
Al  0.957954  2.639615  6.379069
Ni  0.938646  8.047613  8.144439
Ni  2.861238  7.942941  9.986209
Ni  6.435418  8.059312  9.901564
Ni  6.433057  9.916774  8.101143
Ni  4.640478  8.036246  8.122127
Al  6.277370 11.799751  6.362587
Ni  0.935643 13.484038  9.940484
Ni  2.791890 11.620732  9.904478
Ni  2.766175 13.504317  8.177692
Al  1.011127 13.678501  6.391379
Ni  4.603937 13.483094  9.962958
Ni  6.450217 11.712583  9.930397
Ni  6.432496 13.508470  8.177957
Ni  4.569930 11.673392  8.153503
Al  2.903082 11.715504  6.246491
Ni  0.938508  2.693698  9.929917
Ni  2.764679  0.860024 10.002270
Al  6.258215  9.816777  4.499107
Ni  0.975591  0.893146  8.194339
Ni  4.636121  2.704719  9.969577
Ni  6.455867  0.840553  9.940445
Ni  6.446103  2.630202  8.155955
Ni  4.601379  0.860786  8.215973
Ni  0.958330  6.243324 13.537702
Ni  2.814998  4.385512 13.538032
Ni  2.790974  4.585187  9.912402
Ni  0.919726  4.475590 11.691601
Ni  4.632030  6.246592 13.578882
Ni  6.473076  4.465783 13.584349
Ni  6.469084  6.259371 11.755706
Ni  4.674526  4.472714 11.757826
Al  6.328152  6.256656  7.892025
Ni  0.971520 11.729807  0.839247
Ni  2.808986  8.080407 13.569981
Ni  2.883740  9.842637 11.720340
Ni  0.958732  8.056318 11.739920
Al  2.797861  6.155774  4.621676
Ni  6.395111  6.252360  0.959913
Ni  6.416405  9.888980 11.785281
Ni  6.433569  8.095307 13.641282
Al  2.709736  2.704367  0.842995
Ni  0.986049 13.492926 13.457244
Ni  2.819738 11.736966 13.518424
Al  6.285434 11.817618  2.678876
Ni  0.962276 11.677242 11.691518
Al  2.773913 11.749959  2.708477
Ni  6.437016 11.716112 13.598536
Ni  6.432916 13.512514 11.754674
Ni  4.648436 11.706247 11.761731
Al  2.778486  6.169068  0.820856
Al  2.766362  6.182704 11.891861
Ni  0.959867  2.659870 13.466357
Al  2.733587  8.175687  2.693728
Ni  4.636074  0.853554 11.731041
Ni  6.457146  0.847241 13.557296
Ni  6.463324  2.666311 11.722410
%ENDBLOCK POSITIONS_ABS

FIX_ALL_CELL: TRUE
KPOINT_MP_GRID: 1 1 1
