#######################################################
#CASTEP cell file: /home/u2093113/Documents/kART/barriers/CASTEP/castep.cell
#Created using the Atomic Simulation Environment (ASE)#
#######################################################

%BLOCK LATTICE_CART
14.464828  0.000000  0.000000
 0.000000 14.464828  0.000000
 0.000000  0.000000 14.464828
%ENDBLOCK LATTICE_CART

%BLOCK POSITIONS_ABS
Ni  8.221155  4.488605  4.515453
Ni 10.047440  2.691125  4.521746
Ni 10.038903  4.510771  2.727607
Al  8.252771  2.690741  2.737074
Ni 11.837073  4.513016  4.523298
Ni 13.635737  2.709036  4.522646
Ni 13.635314  4.517563  2.714115
Al 11.841765  2.706196  2.714229
Ni  8.151735  8.183457  4.577288
Ni 10.031490  6.330428  4.520025
Ni 10.028960  8.124386  2.732179
Al  8.243520  6.330502  2.752009
Ni 11.844482  8.125798  4.523932
Ni 13.632369  6.319999  4.524752
Ni 13.638407  8.121879  2.712625
Al 11.833510  6.320281  2.719187
Ni  8.224954 11.722054  4.498543
Ni 10.056548  9.937368  4.513797
Ni 10.065114 11.750296  2.701809
Al  8.313885  9.947783  2.674991
Ni 11.858188 11.740893  4.515225
Ni 13.639800  9.928943  4.520316
Ni 13.644502 11.736786  2.707791
Al 11.845214  9.927744  2.708895
Ni  8.227062  0.883802  4.515137
Ni 10.063447 13.544019  4.506624
Ni 10.047742  0.891303  2.712147
Al  8.269816 13.547431  2.722370
Ni 11.850475  0.893656  4.518220
Ni 13.643762 13.550771  4.518834
Ni 13.643637  0.901456  2.710688
Al 11.856165 13.554343  2.704804
Ni  6.495683  4.490350  9.911122
Ni 10.027608  2.684040  8.125575
Ni 10.042285  4.491538  6.323176
Al  8.243045  2.674747  6.309617
Ni 11.822781  4.513079  8.139895
Ni 13.630403  2.710818  8.144695
Ni 13.626863  4.516450  6.334769
Al 11.840829  2.699037  6.331670
Ni  8.146594  8.179579  8.067678
Ni 10.010219  6.329371  8.128955
Ni 10.038589  8.132864  6.328075
Al  8.299342  6.276899  6.299148
Ni 11.833998  8.123803  8.141692
Ni 13.626586  6.319317  8.143634
Ni 13.634718  8.123500  6.334800
Al 11.827073  6.319098  6.332633
Ni  8.209792 11.756419  8.168851
Ni 10.043626  9.941984  8.149439
Ni 10.073856 11.754331  6.330887
Al  8.333986  9.995710  6.333119
Ni 11.856114 11.740316  8.148074
Ni 13.637931  9.927467  8.146886
Ni 13.641765 11.738303  6.333027
Al 11.847959  9.933642  6.333988
Ni  8.225863  0.833443  8.138505
Ni 10.049707 13.539020  8.145932
Ni 10.051811  0.883604  6.325899
Al  8.300779 13.534913  6.277867
Ni 11.846042  0.892669  8.140237
Ni 13.644161 13.550702  8.146916
Ni 13.639374  0.897347  6.332630
Al 11.855214 13.551114  6.331251
Ni  8.220588  4.514771 11.750775
Ni 10.033419  2.713291 11.761399
Ni 10.013205  4.512323  9.935679
Al  8.279299  2.676299  9.928046
Ni 11.820766  4.520131 11.756676
Ni 13.633067  2.718130 11.758190
Ni 13.626440  4.519575  9.950575
Al 11.826803  2.713665  9.947953
Ni  8.206884  8.124051 11.775470
Ni 10.011055  6.318859 11.758157
Ni 10.015863  8.121234  9.935944
Al  8.248128  6.334921  9.926565
Ni 11.829114  8.111756 11.756732
Ni 13.628854  6.317882 11.756248
Ni 13.631615  8.118418  9.952501
Al 11.813784  6.317513  9.944868
Ni  8.246745 11.731824 11.785253
Ni 10.051928  9.920312 11.778471
Ni 10.073471 11.735847  9.966899
Al  8.307196  9.936940  9.988184
Ni 11.857476 11.732438 11.769956
Ni 13.639406  9.921481 11.759739
Ni 13.641636 11.735863  9.957015
Al 11.839694  9.921249  9.956605
Ni  8.258292  0.891728 11.770665
Ni 10.082847 13.549676 11.786403
Ni 10.066121  0.895466  9.952776
Al  8.343359 13.542005 10.030041
Ni 11.847808  0.909578 11.767454
Ni 13.642650 13.553300 11.761588
Ni 13.633862  0.903257  9.953757
Al 11.852168 13.551410  9.957833
Ni  8.217824  4.514676  0.954362
Ni 10.031790  2.704957  0.923211
Ni 10.015445  4.520990 13.577336
Al  8.271537  2.704439 13.584689
Ni 11.830533  4.516973  0.911708
Ni 13.639192  2.714812  0.904269
Ni 13.631737  4.519486 13.563440
Al 11.828969  2.718724 13.570539
Ni  8.218455  8.136903  0.919141
Ni 10.022659  6.320284  0.926899
Ni 10.030248  8.114047 13.572828
Al  8.234724  6.321772 13.594450
Ni 11.835539  8.115424  0.911598
Ni 13.635185  6.318495  0.906702
Ni 13.635306  8.115799 13.564167
Al 11.823376  6.314564 13.568285
Ni  8.232619 11.752758  0.894884
Ni 10.057488  9.930722  0.896933
Ni 10.060186 11.736564 13.573603
Al  8.251546  9.931254 13.575915
Ni 11.856164 11.741341  0.902314
Ni 13.640382  9.924524  0.904397
Ni 13.648680 11.735899 13.565178
Al 11.848044  9.919177 13.567902
Ni  8.222375  0.879195  0.916006
Ni 10.050300 13.553982  0.903951
Ni 10.049319  0.902574 13.579027
Al  8.275704 13.547173 13.557766
Ni 11.848641  0.903480  0.907718
Ni 13.650334 13.553400  0.902607
Ni 13.643720  0.907803 13.564883
Al 11.857428 13.556075 13.574080
Ni  1.013650  4.469486  4.454282
Ni  2.765897  2.665776  4.471692
Al  4.752552  0.880395  0.862248
Ni  0.926059  2.655125  2.654340
Ni  4.500936  4.543265  4.540249
Ni  6.402741  2.678380  4.532139
Ni  4.573625  6.305122  2.694370
Ni  4.625206  2.660719  2.714318
Al  0.814494 13.537871 13.486349
Ni  0.945582  6.353641  2.627336
Ni  0.949519  8.187698  4.507252
Al  2.788431  0.988927 13.450034
Ni  4.544517  8.139057  4.434930
Ni  6.374862  6.314672  4.495772
Ni  6.431899  8.174995  2.746814
Ni  2.738405  8.176183  2.677253
Ni  0.957139 11.753564  4.495908
Ni  4.579689 10.001718  2.706656
Ni  2.749883 11.785822  2.642374
Al  4.652668 11.770502  0.922904
Ni  4.542172 11.813456  4.488608
Ni  4.606142  9.954639  6.287932
Ni  6.433167 11.770996  2.709162
Al  2.790227 11.686781 13.439774
Ni  0.944963  0.852755  4.468162
Ni  4.568139 13.593997  2.672870
Ni  0.965470 13.545832  2.615702
Ni  4.550742  0.845950  4.494285
Ni  6.410000 13.531143  4.522499
Ni  6.432873  0.877070  2.730434
Ni  2.794218 13.586649  0.769185
Ni  0.934062  4.470492  8.133003
Ni  2.796368  2.677745  8.147293
Al  4.603058  8.222460  0.996813
Ni  0.911308  2.633253  6.311229
Al  1.074499  8.191185  0.780052
Ni  6.471547  2.655909  8.100117
Ni  6.399366  4.544536  6.274015
Ni  4.621521  2.683507  6.307780
Ni  1.042688  8.125431  8.162316
Ni  2.835942  6.225559  8.028315
Ni  2.823161  8.096363  6.303806
Ni  0.962711  6.315609  6.302795
Ni  4.576491  8.055698  8.162005
Ni  8.217079  4.489666  8.105164
Al  2.867518  0.967266 10.078868
Ni  6.446584  6.317963  8.098974
Ni  0.970466 13.579361  6.339257
Al  0.973952  9.889526  9.980981
Ni  1.031049  9.999195  6.383071
Ni  4.561974 11.799216  8.167327
Ni  6.419059 11.779098  6.349287
Ni  2.772994 11.797769  6.337741
Al  4.711178  8.134394 11.760021
Al  2.796879  7.888095  9.948563
Ni  2.821732 13.631384  8.182869
Ni  2.761902  0.904688  6.302770
Ni  4.601944  0.902675  8.157152
Ni  6.417076  0.835481  6.330749
Al  4.787361  4.431204 11.712193
Al  4.740814  6.273453 13.671661
Al  2.756296  4.503073  9.845922
Al  0.911578  4.536806 11.759204
Ni  0.933229  2.712172  9.967113
Ni  6.510832  2.676493 11.744750
Ni  4.667330  2.738002  9.915004
Al  4.595242 13.581772  6.319965
Al  6.369155 13.536949  8.239529
Al  2.692778 13.494032  4.486345
Ni  0.963327  8.053855 11.762810
Al  0.984211  0.912217  8.185837
Ni  0.931958  6.280298  9.950358
Ni  2.872175  6.166697 11.814855
Ni  6.454467  6.319018 11.762763
Ni  6.440870  8.139298  9.920873
Ni  4.662629  6.238015  9.948747
Al  6.267902  9.997282  8.154002
Ni  0.943833 11.717172 11.726598
Ni  2.797532  9.845045 11.698986
Ni  2.776652 11.735119  9.975816
Al  1.031510 11.908122  8.195803
Ni  4.606562 11.718563 11.756585
Ni  6.448090  9.942323 11.735708
Ni  6.425399 11.736536  9.972050
Ni  4.574294  9.890471  9.954942
Al  2.919511  9.927667  8.052209
Ni  0.944183  0.930933 11.735787
Ni  2.771300 13.564691 11.795463
Al  6.152911  7.941568  6.291710
Ni  0.991560 13.604510  9.988131
Ni  4.640918  0.945139 11.777751
Ni  6.454318 13.545124 11.737781
Ni  6.443460  0.883920  9.960283
Ni  4.603792 13.572278 10.011012
Ni  0.949386  4.479483  0.869173
Ni  2.813084  2.618031  0.873872
Ni  2.805585  2.834525 11.743923
Ni  0.914699  2.704615 13.503734
Ni  4.629067  4.479554  0.924279
Ni  6.473130  2.693174  0.933492
Ni  6.473068  4.496057 13.595121
Ni  4.680479  2.715074 13.565893
Al  4.758205  4.495033  8.075807
Ni  0.970513  9.974675  2.646198
Ni  2.800394  6.319292  0.901680
Ni  2.884812  8.080043 13.525351
Ni  0.949180  6.302734 13.555490
Al  2.685967  4.385569  6.314694
Ni  6.393191  4.488272  2.758478
Ni  6.415236  8.136756 13.605960
Ni  6.438786  6.337568  0.991149
Al  2.706463  0.931886  2.639014
Ni  0.986601 11.728404  0.793277
Ni  2.817736  9.982397  0.851806
Al  6.280263 10.032967  4.497659
Ni  0.963848  9.916828 13.484726
Al  2.775085  9.978094  4.516229
Ni  6.435445  9.964701  0.935246
Ni  6.431962 11.750554 13.554360
Ni  4.646018  9.943912 13.558300
Al  2.764949  4.406399  2.612780
Al  2.776320  4.418809 13.695643
Ni  0.958561  0.882032  0.799753
Al  2.734640  6.419663  4.479759
Ni  4.634987 13.549284 13.532413
Ni  6.453971 13.537577  0.904576
Ni  6.464525  0.883592 13.546171
%ENDBLOCK POSITIONS_ABS

FIX_ALL_CELL: TRUE
KPOINT_MP_GRID: 1 1 1
