%block lattice_abc
 14.46482773 14.46482773 14.46482773 #lattice params
 90.0  90.0  90.0
%endblock lattice_abc

fix_all_cell : true


%BLOCK POSITIONS_ABS
Al  8.230342  4.448552 11.769233
Al 11.848910  4.462812 11.757266
Al  8.226751  8.095679 11.808779
Al 11.857826  8.085781 11.769423
Al  8.311374 11.698485 11.693521
Al 11.882520 11.687954 11.742467
Al  8.251009  0.853235 11.760984
Al 11.862659  0.853284 11.741295
Al  8.225171  4.430324  0.894579
Al 11.848769  4.473275  0.895719
Al  8.288151  8.002611  0.874962
Al 11.854365  8.074655  0.905160
Al  8.398556 11.803186  0.915375
Al 11.874551 11.682103  0.908556
Al  8.305206  0.823827  0.834237
Al 11.884395  0.862752  0.891339
Al  8.182213  4.470797  4.506761
Al 11.826880  4.488070  4.515052
Al  8.166659  8.059822  4.506333
Al 11.820621  8.070437  4.506471
Al  8.300822 11.706657  4.579723
Al 11.889794 11.671125  4.527181
Al  8.350070  0.831659  4.620599
Al 11.838479  0.852895  4.529367
Al  8.258428  4.460138  8.158145
Al 11.808022  4.486269  8.139140
Al  8.209077  8.081327  8.165957
Al 11.826762  8.079939  8.139539
Al  8.233813 11.693560  8.156954
Al 11.841892 11.668242  8.154526
Al  8.252196  0.844716  8.132393
Al 11.879069  0.843511  8.152502
Al  4.765429  2.653817  9.919242
Al  0.824387  0.870048  8.118044
Al  2.804009  2.758420  8.010579
Al  4.664046 13.541325 10.010099
Al  2.781502 13.411006  8.045345
Al  4.608801  9.987935 10.066775
Al  0.989642  9.876929  9.924778
Al  2.858308  2.700188  4.642782
Al  0.869667 11.664801  4.649277
Al  4.729850  9.969321  6.340064
Al  2.792546  9.652711  4.531717
Al  4.926839  6.194919  6.156891
Al  4.714053  8.027187  8.243515
Al  2.769366  6.273462  4.415352
Al  0.821786  6.268583  6.335159
Al  4.546902  0.853041  0.902469
Al  6.374325  0.843176  2.822340
Al  2.640692  0.784801 13.532990
Al  0.915827  2.673640  2.657242
Al  6.250441 11.797236  2.758917
Al  0.900852 13.641962  2.665486
Al  2.889324 11.699739  2.615030
Al  6.237496  9.790615  0.862377
Al  4.887254  6.226022  2.747068
Al  2.726899  6.151337  0.904639
Al  2.697941  2.715896 11.718420
Al  6.288118 11.821612 13.496244
Al  2.762234 11.715125 13.551393
Al  2.799739  6.176774 11.663821
Al  2.761636  6.169368  8.304359
Al  2.766051  8.196142 13.530602
Ni  8.215238  6.243141 13.545383
Ni 10.046645  4.455092 13.564655
Ni 10.046243  6.275759 11.780376
Ni 11.860559  6.275262 13.566347
Ni 13.661774  4.477728 13.545648
Ni 13.640743  6.289040 11.755756
Ni  8.176126  9.976546 13.667762
Ni 10.043385  8.086099 13.570711
Ni 10.051404  9.881119 11.780574
Ni 11.866568  9.878068 13.575250
Ni 13.685135  8.076496 13.568611
Ni 13.674242  9.885224 11.765218
Ni  8.250603 13.463247 13.551429
Ni 10.080901 11.694503 13.547913
Ni 10.055589 13.507528 11.746017
Ni 11.870639 13.507130 13.535689
Ni 13.658016 11.687838 13.560868
Ni 13.671978 13.494527 11.732101
Ni  8.230072  2.649885 13.570723
Ni 10.077521  0.847386 13.543083
Ni 10.041171  2.656217 11.752266
Ni 11.856158  2.662476 13.537188
Ni 13.682027  0.856827 13.529336
Ni 13.667360  2.661372 11.741183
Ni  8.162255  6.246287  2.702726
Ni 10.014821  4.465748  2.709607
Ni 10.040206  6.249041  0.897075
Ni 11.823679  6.284255  2.690299
Ni 13.649191  4.492339  2.698183
Ni 13.673875  6.275914  0.888724
Ni  8.170295  9.994178  2.602515
Ni  9.988156  8.081297  2.708069
Ni 10.053630  9.887168  0.908631
Ni 11.849196  9.860380  2.714257
Ni 13.673461  8.076217  2.701363
Ni 13.684287  9.882096  0.918811
Ni  8.239531 13.523922  2.739919
Ni 10.080757 11.700525  2.732924
Ni 10.111539 13.532366  0.905625
Ni 11.888930 13.486815  2.720312
Ni 13.703460 11.674243  2.717972
Ni 13.653239 13.506894  0.873227
Ni  8.245398  2.566484  2.719810
Ni 10.086527  0.833864  2.713728
Ni 10.056450  2.650252  0.906977
Ni 11.849474  2.691608  2.713321
Ni 13.609654  0.886590  2.734692
Ni 13.625088  2.670741  0.860617
Ni  8.167412  6.265000  6.311388
Ni 10.017965  4.479569  6.318140
Ni  9.979334  6.275789  4.507210
Ni 11.837473  6.284908  6.322469
Ni 13.622993  4.446338  6.324885
Ni 13.614590  6.272470  4.474722
Ni  8.204289  9.889985  6.334672
Ni  9.993373  8.074932  6.316751
Ni 10.005642  9.874697  4.501654
Ni 11.817025  9.866781  6.320210
Ni 13.635467  8.103773  6.325552
Ni 13.661881  9.840373  4.520940
Ni  8.259884 13.504092  6.347903
Ni 10.054724 11.678714  6.350576
Ni 10.078486 13.487541  4.530468
Ni 11.855474 13.486012  6.342477
Ni 13.631168 11.654881  6.378750
Ni 13.664817 13.519350  4.543600
Ni  8.268761  2.645829  6.325343
Ni 10.087752  0.840360  6.366539
Ni 10.051399  2.668798  4.515727
Ni 11.826473  2.668353  6.331947
Ni 13.632261  0.871324  6.302270
Ni 13.634959  2.677545  4.534891
Ni  8.238285  6.280588  9.995809
Ni 10.033443  4.467960  9.966376
Ni 10.016418  6.287806  8.139999
Ni 11.818675  6.273217  9.965488
Ni 13.643111  4.479966  9.946764
Ni 13.612243  6.282620  8.176073
Ni  8.228549  9.873983  9.981166
Ni 10.035140  8.084244  9.973399
Ni 10.022179  9.869867  8.146780
Ni 11.857637  9.873827  9.951988
Ni 13.650153  8.066969  9.948850
Ni 13.649337  9.855160  8.120276
Ni  8.242366 13.515989  9.937345
Ni 10.060934 11.681796  9.941308
Ni 10.058867 13.495554  8.149936
Ni 11.848098 13.499600  9.948837
Ni 13.671227 11.701227  9.919157
Ni 13.642248 13.470427  8.128748
Ni  8.228840  2.654252  9.957167
Ni 10.049962  0.850583  9.946300
Ni 10.046245  2.659356  8.149511
Ni 11.846498  2.669460  9.953182
Ni 13.637388  0.842274  9.957857
Ni 13.602870  2.703746  8.135130
Ni  1.011646  6.282137 13.536464
Ni  2.786817  4.435297 13.545744
Ni  0.947320  4.486916 11.728115
Ni  4.551486  6.254972 13.555879
Ni  6.378602  4.430197 13.567768
Ni  4.592731  8.043030 11.767628
Ni  4.635188  4.411151 11.759361
Ni  0.980154  8.054932 11.752782
Ni  0.955782  9.903699 13.556716
Ni  4.605080  9.900559 13.504094
Ni  6.377601  8.047456 13.558543
Ni  6.431779  9.922458 11.802322
Ni  2.752099  9.911648 11.729741
Ni  0.941367 13.477350 13.559737
Ni  4.538146 11.753410 11.753229
Ni  2.749099 13.529773 11.702509
Ni  4.557632 13.598169 13.539576
Ni  4.611133 11.737772  0.856001
Ni  6.433519 13.539577 11.758224
Ni  0.969075  2.673800 13.535162
Ni  4.564152  0.902668 11.745044
Ni  0.986417  0.849459 11.689032
Ni  4.572248  2.611133 13.551024
Ni  6.413103  0.828421 13.534537
Ni  6.421766  2.634209 11.797322
Ni  2.779611  0.891202  9.848900
Ni  0.955909  6.244617  2.685113
Ni  2.825259  4.431902  2.719348
Ni  0.952050  4.446619  0.870561
Ni  6.439356  4.338039  2.679461
Ni  6.406922  6.244206  0.849632
Ni  4.605815  4.424587  0.894714
Ni  1.053583  9.906183  2.746332
Ni  2.823017  7.987993  2.662273
Ni  2.807900  9.886806  0.899149
Ni  1.015127  8.079968  0.900530
Ni  4.586213  9.842915  2.701510
Ni  6.453835  8.118951  2.675843
Ni  4.529947  7.998967  0.880154
Ni  0.931340  0.891336  0.877159
Ni  0.979792 11.689234  0.925727
Ni  4.554286 13.584154  2.735322
Ni  6.407339 13.548422  0.914363
Ni  2.752873 13.539673  0.912131
Ni  2.751282  0.926832  2.770411
Ni  2.784119  2.660549  0.867174
Ni  4.614163  2.643712  2.700524
Ni  6.406457  2.559120  0.898968
Ni  0.967788  4.466625  4.509394
Ni  6.469011  4.368311  6.355008
Ni  4.685899  4.450553  4.495853
Ni  1.021718  9.798172  6.342706
Ni  0.963976  8.016835  4.508194
Ni  2.901499  7.874426  6.418376
Ni  6.394613  8.126938  6.360051
Ni  6.444660  9.913415  4.473625
Ni  4.691226  8.047277  4.486663
Ni  0.959528 13.515374  6.342088
Ni  2.782616 11.613187  6.283266
Ni  2.700445 13.475521  4.475993
Ni  4.595962 13.482700  6.295982
Ni  6.432004 11.732933  6.340834
Ni  6.410499 13.504526  4.560368
Ni  4.517891 11.685677  4.537923
Ni  0.959137  2.714890  6.339032
Ni  2.760592  0.831196  6.388181
Ni  0.980949  0.911193  4.582225
Ni  4.655154  2.661901  6.344507
Ni  6.410455  0.839220  6.330827
Ni  6.427023  2.626410  4.537446
Ni  4.567202  0.836194  4.579798
Ni  0.939549  6.273822  9.960567
Ni  2.820421  4.352620  9.923391
Ni  2.825731  4.675747  6.310760
Ni  0.943415  4.481397  8.138247
Ni  4.651001  6.213121  9.961198
Ni  6.445817  4.485906  9.954989
Ni  6.458020  6.255574  8.159507
Ni  4.673254  4.466367  8.122373
Ni  0.971192 11.716307 11.731971
Ni  2.827505  8.084622  9.935886
Ni  2.893718  9.858762  8.099646
Ni  1.002352  8.047934  8.138779
Ni  6.394532  6.249831 11.780343
Ni  6.395404  9.902589  8.211138
Ni  6.412613  8.067936 10.015644
Ni  0.987860 13.507024  9.889437
Ni  2.769764 11.732087  9.920296
Ni  0.986139 11.642476  8.088508
Ni  6.433517 11.716450  9.974890
Ni  6.420179 13.505834  8.112923
Ni  4.638844 11.749371  8.153809
Ni  0.941326  2.665566  9.897707
Ni  4.631640  0.828088  8.107384
Ni  6.446780  0.839929  9.934361
Ni  6.472206  2.633556  8.116588
%ENDBLOCK POSITIONS_ABS

%block positions_abs_product
ang
Al  8.221779  4.454764 11.762546
Al 11.840931  4.455636 11.758121
Al  8.211673  8.086470 11.795553
Al 11.851164  8.088336 11.770189
Al  8.295403 11.685491 11.688891
Al 11.873831 11.687714 11.742714
Al  8.235328  0.855888 11.760812
Al 11.851678  0.846235 11.742464
Al  8.212139  4.445728  0.921982
Al 11.856440  4.469266  0.878438
Al  8.281306  7.980802  0.903769
Al 11.865589  8.074603  0.887264
Al  8.388784 11.800078  0.915189
Al 11.869687 11.685686  0.897518
Al  8.290533  0.827176  0.832757
Al 11.876614  0.857731  0.880930
Al  8.306841  4.370067  4.519367
Al 11.843481  4.473887  4.512543
Al  8.296829  8.167680  4.499834
Al 11.840439  8.078249  4.503644
Al  8.298344 11.699994  4.574418
Al 11.905729 11.686518  4.522792
Al  8.342597  0.839617  4.621981
Al 11.845270  0.838058  4.527387
Al  8.273245  4.459558  8.138754
Al 11.819218  4.473773  8.153701
Al  8.220779  8.068959  8.142184
Al 11.838809  8.087091  8.150429
Al  8.226093 11.690907  8.156359
Al 11.836886 11.674243  8.161312
Al  8.240948  0.844069  8.132673
Al 11.875470  0.833870  8.158661
Al  4.768352  2.669355  9.904620
Al  0.826109  0.862941  8.126297
Al  2.801268  2.745981  8.018809
Al  4.668954 13.534374 10.005259
Al  2.785990 13.409148  8.049591
Al  4.609849  9.942121 10.018314
Al  0.992730  9.876185  9.926524
Al  2.841815  2.684477  4.638966
Al  0.858814 11.678892  4.649164
Al  4.722175  9.939116  6.318217
Al  2.760318  9.676372  4.532211
Al  6.324070  6.253319  4.743463
Al  4.714050  7.937416  8.112821
Al  2.797711  6.275210  4.507580
Al  0.806713  6.258642  6.339761
Al  4.544399  0.866753  0.909628
Al  6.363832  0.856562  2.829239
Al  2.650626  0.782561 13.528777
Al  0.908526  2.666040  2.649235
Al  6.242068 11.792730  2.758891
Al  0.901348 13.642005  2.653313
Al  2.888775 11.699822  2.612861
Al  6.229967  9.757132  0.893194
Al  4.710285  6.226550  2.623773
Al  2.671861  6.151817  0.865828
Al  2.704089  2.713329 11.710703
Al  6.279558 11.802209 13.498785
Al  2.774901 11.704314 13.545244
Al  2.807936  6.179170 11.651027
Al  2.746753  6.159391  8.262772
Al  2.760121  8.199744 13.517567
Ni  8.206345  6.242873 13.546400
Ni 10.036762  4.457117 13.565233
Ni 10.035778  6.275881 11.773745
Ni 11.859885  6.273995 13.555830
Ni 13.660514  4.470895 13.531906
Ni 13.641671  6.287922 11.749659
Ni  8.160318  9.962527 13.674692
Ni 10.031535  8.082774 13.571456
Ni 10.037477  9.875681 11.779021
Ni 11.862992  9.880527 13.567421
Ni 13.686085  8.079652 13.556380
Ni 13.674756  9.888766 11.762407
Ni  8.235675 13.457941 13.551711
Ni 10.066936 11.689108 13.545748
Ni 10.038454 13.503590 11.746445
Ni 11.861394 13.504942 13.530603
Ni 13.658126 11.688106 13.554927
Ni 13.672874 13.489234 11.733201
Ni  8.216644  2.661869 13.578050
Ni 10.061012  0.846737 13.541357
Ni 10.026695  2.655340 11.752687
Ni 11.847742  2.655141 13.529170
Ni 13.682608  0.849160 13.521469
Ni 13.667093  2.652400 11.739225
Ni  8.202296  6.244131  2.785139
Ni 10.043990  4.459643  2.696834
Ni 10.041315  6.247039  0.895842
Ni 11.841204  6.282719  2.671183
Ni 13.650000  4.484548  2.689946
Ni 13.681165  6.273905  0.878489
Ni  8.168307  9.978451  2.586620
Ni 10.026799  8.085202  2.692498
Ni 10.053626  9.886223  0.900933
Ni 11.861200  9.870315  2.700608
Ni 13.676978  8.076524  2.692973
Ni 13.685984  9.888382  0.908949
Ni  8.229988 13.526133  2.739259
Ni 10.076817 11.701431  2.723583
Ni 10.099064 13.531356  0.901074
Ni 11.886628 13.486405  2.710174
Ni 13.707442 11.680869  2.707317
Ni 13.652824 13.505731  0.862467
Ni  8.235148  2.571722  2.716190
Ni 10.080454  0.832279  2.707118
Ni 10.049586  2.650435  0.902624
Ni 11.856171  2.680752  2.702418
Ni 13.609612  0.879973  2.722207
Ni 13.623582  2.659592  0.847918
Ni  8.253279  6.260195  6.277134
Ni 10.061722  4.463890  6.333020
Ni 10.050741  6.274234  4.506405
Ni 11.855604  6.281932  6.334036
Ni 13.618630  4.435842  6.329597
Ni 13.613464  6.267195  4.472479
Ni  8.219503  9.899768  6.338760
Ni 10.033327  8.084564  6.327176
Ni 10.051599  9.909176  4.498908
Ni 11.828386  9.881486  6.326409
Ni 13.631905  8.104107  6.329758
Ni 13.665664  9.846458  4.517384
Ni  8.252190 13.500679  6.345280
Ni 10.058138 11.687569  6.350968
Ni 10.071584 13.487293  4.525815
Ni 11.853448 13.488913  6.345538
Ni 13.629352 11.666373  6.384382
Ni 13.667486 13.525060  4.541257
Ni  8.262973  2.646012  6.336127
Ni 10.080329  0.835551  6.367856
Ni 10.082300  2.637231  4.516434
Ni 11.836622  2.648414  6.337614
Ni 13.635391  0.864058  6.307280
Ni 13.636704  2.666684  4.531787
Ni  8.231545  6.280761  9.971317
Ni 10.031702  4.464730  9.966161
Ni 10.043590  6.284409  8.149001
Ni 11.822792  6.271274  9.975682
Ni 13.641314  4.471824  9.957175
Ni 13.609995  6.279235  8.187914
Ni  8.217800  9.859299  9.967440
Ni 10.035455  8.083421  9.970781
Ni 10.026235  9.874143  8.150119
Ni 11.855358  9.879307  9.957660
Ni 13.645642  8.070774  9.957420
Ni 13.646715  9.864325  8.128342
Ni  8.227685 13.510928  9.935780
Ni 10.048449 11.679230  9.943978
Ni 10.049299 13.494723  8.153121
Ni 11.839868 13.495884  9.954022
Ni 13.671687 11.703340  9.923709
Ni 13.641135 13.469499  8.136003
Ni  8.221180  2.657394  9.949875
Ni 10.037324  0.845940  9.950630
Ni 10.048396  2.649377  8.153777
Ni 11.842074  2.658135  9.961074
Ni 13.635864  0.833575  9.965230
Ni 13.601764  2.690329  8.145880
Ni  1.000198  6.280910 13.516170
Ni  2.779796  4.431677 13.531806
Ni  0.949797  4.484700 11.720537
Ni  4.547599  6.255878 13.557519
Ni  6.373541  4.438137 13.568323
Ni  4.592926  8.034441 11.754355
Ni  4.634694  4.416872 11.748878
Ni  0.984592  8.053635 11.740828
Ni  0.958090  9.904294 13.547259
Ni  4.608950  9.890615 13.504607
Ni  6.371826  8.040854 13.562554
Ni  6.420183  9.902726 11.786200
Ni  2.763812  9.899959 11.714170
Ni  0.948821 13.472279 13.554616
Ni  4.544275 11.728517 11.735885
Ni  2.759831 13.521777 11.699315
Ni  4.561190 13.589560 13.538943
Ni  4.612192 11.722178  0.865159
Ni  6.428543 13.529993 11.757317
Ni  0.972153  2.667224 13.525226
Ni  4.568956  0.902400 11.739761
Ni  0.992341  0.841382 11.688710
Ni  4.570090  2.613859 13.545953
Ni  6.405473  0.836878 13.539912
Ni  6.416207  2.641599 11.792061
Ni  2.785822  0.888836  9.849472
Ni  0.956671  6.237861  2.697611
Ni  2.801474  4.448374  2.719039
Ni  0.939719  4.434565  0.862294
Ni  6.423370  4.417386  2.758248
Ni  6.411147  6.246610  0.864257
Ni  4.592643  4.422951  0.881500
Ni  1.046617  9.910639  2.741674
Ni  2.792473  7.976582  2.670854
Ni  2.800462  9.885161  0.900947
Ni  1.007093  8.083928  0.892882
Ni  4.573332  9.818298  2.718540
Ni  6.434094  8.048503  2.756248
Ni  4.505495  8.002896  0.870301
Ni  0.934970  0.887059  0.866845
Ni  0.981863 11.689134  0.915817
Ni  4.552560 13.585237  2.735365
Ni  6.395941 13.546706  0.915711
Ni  2.760228 13.534258  0.909386
Ni  2.752938  0.928822  2.763041
Ni  2.778953  2.663660  0.864338
Ni  4.607776  2.682011  2.723364
Ni  6.395197  2.591349  0.923056
Ni  0.960039  4.459532  4.509510
Ni  6.437309  4.421215  6.338887
Ni  4.616703  4.507887  4.550302
Ni  0.998129  9.815792  6.346649
Ni  0.955380  8.012696  4.510250
Ni  2.819489  7.945968  6.424105
Ni  6.429212  8.108651  6.316305
Ni  6.441471  9.918467  4.465241
Ni  4.614110  8.032370  4.508358
Ni  0.959515 13.515476  6.347707
Ni  2.779575 11.615315  6.282494
Ni  2.693229 13.476849  4.468891
Ni  4.592438 13.479501  6.291235
Ni  6.424313 11.722948  6.334085
Ni  6.406960 13.505784  4.558221
Ni  4.511213 11.684351  4.537788
Ni  0.950497  2.699724  6.345512
Ni  2.759128  0.826518  6.387562
Ni  0.976959  0.906375  4.578610
Ni  4.647984  2.678089  6.335875
Ni  6.403352  0.840762  6.326912
Ni  6.408055  2.642337  4.544660
Ni  4.561965  0.836059  4.578461
Ni  0.943606  6.271855  9.956702
Ni  2.815251  4.357364  9.913673
Ni  2.789365  4.609893  6.327396
Ni  0.928830  4.469795  8.147787
Ni  4.652188  6.211006  9.910177
Ni  6.447273  4.493797  9.934638
Ni  6.477941  6.231864  8.090377
Ni  4.663838  4.477017  8.093178
Ni  0.979042 11.712904 11.730162
Ni  2.836254  8.069751  9.905474
Ni  2.880844  9.860388  8.096815
Ni  0.979210  8.052478  8.147370
Ni  6.383437  6.251134 11.765642
Ni  6.393740  9.875501  8.179099
Ni  6.394809  8.049680  9.969859
Ni  0.995724 13.502253  9.892810
Ni  2.778901 11.724192  9.917046
Ni  0.986664 11.645468  8.094554
Ni  6.423042 11.695675  9.961450
Ni  6.412548 13.501692  8.108016
Ni  4.637632 11.733973  8.139569
Ni  0.942158  2.656772  9.900926
Ni  4.631864  0.830184  8.104145
Ni  6.441269  0.845422  9.928749
Ni  6.462399  2.650748  8.097455
%endblock positions_abs_product

%block positions_abs_intermediate
ang
Al  8.226060  4.451658 11.765890
Al 11.844920  4.459224 11.757694
Al  8.219212  8.091075 11.802166
Al 11.854495  8.087058 11.769806
Al  8.303389 11.691988 11.691206
Al 11.878176 11.687834 11.742591
Al  8.243169  0.854562 11.760898
Al 11.857169  0.849760 11.741880
Al  8.218655  4.438026  0.908280
Al 11.852605  4.471270  0.887079
Al  8.284729  7.991706  0.889365
Al 11.859977  8.074629  0.896212
Al  8.393670 11.801632  0.915282
Al 11.872119 11.683895  0.903037
Al  8.297870  0.825501  0.833497
Al 11.880504  0.860241  0.886135
Al  8.244527  4.420432  4.513064
Al 11.835181  4.480978  4.513797
Al  8.231744  8.113751  4.503084
Al 11.830530  8.074343  4.505057
Al  8.299583 11.703325  4.577070
Al 11.897762 11.678822  4.524987
Al  8.346334  0.835638  4.621290
Al 11.841875  0.845476  4.528377
Al  8.265837  4.459848  8.148450
Al 11.813620  4.480021  8.146420
Al  8.214928  8.075143  8.154070
Al 11.832785  8.083515  8.144984
Al  8.229953 11.692234  8.156657
Al 11.839389 11.671242  8.157919
Al  8.246572  0.844393  8.132533
Al 11.877270  0.838691  8.155581
Al  4.766890  2.661586  9.911931
Al  0.825248  0.866495  8.122170
Al  2.802639  2.752201  8.014694
Al  4.666500 13.537849 10.007679
Al  2.783746 13.410077  8.047468
Al  4.609325  9.965028 10.042545
Al  0.991186  9.876557  9.925651
Al  2.850062  2.692332  4.640874
Al  0.864241 11.671846  4.649220
Al  4.726013  9.954219  6.329140
Al  2.776432  9.664541  4.531964
Al  5.625454  6.224119  5.450177
Al  4.714052  7.982301  8.178168
Al  2.783538  6.274336  4.461466
Al  0.814249  6.263613  6.337460
Al  4.545651  0.859897  0.906049
Al  6.369079  0.849869  2.825790
Al  2.645659  0.783681 13.530883
Al  0.912177  2.669840  2.653239
Al  6.246254 11.794983  2.758904
Al  0.901100 13.641984  2.659399
Al  2.889050 11.699781  2.613945
Al  6.233731  9.773874  0.877786
Al  4.798769  6.226286  2.685421
Al  2.699380  6.151577  0.885233
Al  2.701015  2.714613 11.714561
Al  6.283838 11.811911 13.497515
Al  2.768567 11.709720 13.548318
Al  2.803838  6.177972 11.657424
Al  2.754195  6.164379  8.283565
Al  2.763086  8.197943 13.524084
Ni  8.210792  6.243007 13.545892
Ni 10.041704  4.456105 13.564944
Ni 10.041011  6.275820 11.777061
Ni 11.860222  6.274629 13.561088
Ni 13.661144  4.474312 13.538777
Ni 13.641207  6.288481 11.752708
Ni  8.168222  9.969537 13.671227
Ni 10.037460  8.084436 13.571084
Ni 10.044441  9.878400 11.779798
Ni 11.864780  9.879297 13.571336
Ni 13.685610  8.078074 13.562496
Ni 13.674499  9.886995 11.763813
Ni  8.243139 13.460594 13.551570
Ni 10.073919 11.691805 13.546830
Ni 10.047021 13.505559 11.746231
Ni 11.866017 13.506036 13.533146
Ni 13.658071 11.687972 13.557897
Ni 13.672426 13.491881 11.732651
Ni  8.223358  2.655877 13.574386
Ni 10.069266  0.847061 13.542220
Ni 10.033933  2.655778 11.752477
Ni 11.851950  2.658808 13.533179
Ni 13.682318  0.852994 13.525403
Ni 13.667227  2.656886 11.740204
Ni  8.182276  6.245209  2.743933
Ni 10.029406  4.462695  2.703221
Ni 10.040761  6.248040  0.896459
Ni 11.832442  6.283487  2.680741
Ni 13.649595  4.488444  2.694064
Ni 13.677520  6.274910  0.883607
Ni  8.169301  9.986315  2.594568
Ni 10.007477  8.083250  2.700283
Ni 10.053628  9.886696  0.904782
Ni 11.855198  9.865348  2.707432
Ni 13.675219  8.076371  2.697168
Ni 13.685136  9.885239  0.913880
Ni  8.234759 13.525027  2.739589
Ni 10.078787 11.700978  2.728254
Ni 10.105301 13.531861  0.903349
Ni 11.887779 13.486610  2.715243
Ni 13.705451 11.677556  2.712645
Ni 13.653032 13.506312  0.867847
Ni  8.240273  2.569103  2.718000
Ni 10.083490  0.833072  2.710423
Ni 10.053018  2.650343  0.904801
Ni 11.852822  2.686180  2.707869
Ni 13.609633  0.883282  2.728449
Ni 13.624335  2.665166  0.854268
Ni  8.210346  6.262597  6.294261
Ni 10.039843  4.471729  6.325580
Ni 10.015037  6.275011  4.506807
Ni 11.846539  6.283420  6.328252
Ni 13.620811  4.441090  6.327241
Ni 13.614027  6.269832  4.473601
Ni  8.211896  9.894877  6.336716
Ni 10.013350  8.079748  6.321964
Ni 10.028620  9.891937  4.500281
Ni 11.822706  9.874133  6.323310
Ni 13.633686  8.103940  6.327655
Ni 13.663772  9.843416  4.519162
Ni  8.256037 13.502385  6.346591
Ni 10.056431 11.683142  6.350772
Ni 10.075035 13.487417  4.528141
Ni 11.854461 13.487462  6.344007
Ni 13.630260 11.660627  6.381566
Ni 13.666152 13.522205  4.542429
Ni  8.265867  2.645920  6.330735
Ni 10.084040  0.837956  6.367197
Ni 10.066850  2.653014  4.516081
Ni 11.831548  2.658383  6.334781
Ni 13.633826  0.867691  6.304775
Ni 13.635831  2.672114  4.533339
Ni  8.234915  6.280674  9.983563
Ni 10.032573  4.466345  9.966268
Ni 10.030004  6.286107  8.144500
Ni 11.820734  6.272246  9.970585
Ni 13.642212  4.475895  9.951970
Ni 13.611119  6.280928  8.181994
Ni  8.223174  9.866641  9.974303
Ni 10.035298  8.083833  9.972090
Ni 10.024207  9.872005  8.148450
Ni 11.856497  9.876567  9.954824
Ni 13.647897  8.068871  9.953135
Ni 13.648026  9.859743  8.124309
Ni  8.235026 13.513459  9.936562
Ni 10.054691 11.680513  9.942643
Ni 10.054083 13.495138  8.151529
Ni 11.843983 13.497742  9.951429
Ni 13.671457 11.702283  9.921433
Ni 13.641691 13.469963  8.132375
Ni  8.225010  2.655823  9.953521
Ni 10.043643  0.848262  9.948465
Ni 10.047321  2.654366  8.151644
Ni 11.844286  2.663798  9.957128
Ni 13.636626  0.837925  9.961543
Ni 13.602317  2.697038  8.140505
Ni  1.005922  6.281523 13.526317
Ni  2.783307  4.433487 13.538775
Ni  0.948558  4.485808 11.724326
Ni  4.549542  6.255425 13.556699
Ni  6.376071  4.434167 13.568045
Ni  4.592829  8.038736 11.760992
Ni  4.634941  4.414011 11.754120
Ni  0.982373  8.054284 11.746805
Ni  0.956936  9.903996 13.551988
Ni  4.607015  9.895587 13.504350
Ni  6.374713  8.044155 13.560549
Ni  6.425981  9.912592 11.794261
Ni  2.757955  9.905803 11.721956
Ni  0.945094 13.474814 13.557177
Ni  4.541210 11.740964 11.744557
Ni  2.754465 13.525775 11.700912
Ni  4.559411 13.593865 13.539260
Ni  4.611662 11.729975  0.860580
Ni  6.431031 13.534785 11.757771
Ni  0.970614  2.670512 13.530194
Ni  4.566554  0.902534 11.742403
Ni  0.989379  0.845421 11.688871
Ni  4.571169  2.612496 13.548489
Ni  6.409288  0.832650 13.537224
Ni  6.418987  2.637904 11.794692
Ni  2.782717  0.890019  9.849186
Ni  0.956290  6.241239  2.691362
Ni  2.813367  4.440138  2.719194
Ni  0.945884  4.440592  0.866427
Ni  6.431363  4.377712  2.718855
Ni  6.409035  6.245408  0.856944
Ni  4.599229  4.423769  0.888107
Ni  1.050100  9.908411  2.744003
Ni  2.807745  7.982288  2.666564
Ni  2.804181  9.885983  0.900048
Ni  1.011110  8.081948  0.896706
Ni  4.579772  9.830606  2.710025
Ni  6.443965  8.083727  2.716046
Ni  4.517721  8.000932  0.875227
Ni  0.933155  0.889197  0.872002
Ni  0.980828 11.689184  0.920772
Ni  4.553423 13.584695  2.735343
Ni  6.401640 13.547564  0.915037
Ni  2.756550 13.536965  0.910759
Ni  2.752110  0.927827  2.766726
Ni  2.781536  2.662104  0.865756
Ni  4.610970  2.662862  2.711944
Ni  6.400827  2.575234  0.911012
Ni  0.963914  4.463079  4.509452
Ni  6.453160  4.394763  6.346947
Ni  4.651301  4.479220  4.523077
Ni  1.009924  9.806982  6.344677
Ni  0.959678  8.014766  4.509222
Ni  2.860494  7.910197  6.421240
Ni  6.411913  8.117795  6.338178
Ni  6.443065  9.915941  4.469433
Ni  4.652668  8.039823  4.497510
Ni  0.959521 13.515425  6.344898
Ni  2.781095 11.614251  6.282880
Ni  2.696837 13.476185  4.472442
Ni  4.594200 13.481100  6.293608
Ni  6.428158 11.727941  6.337459
Ni  6.408729 13.505155  4.559294
Ni  4.514552 11.685014  4.537856
Ni  0.954817  2.707307  6.342272
Ni  2.759860  0.828857  6.387871
Ni  0.978954  0.908784  4.580417
Ni  4.651569  2.669995  6.340191
Ni  6.406903  0.839991  6.328870
Ni  6.417539  2.634374  4.541053
Ni  4.564584  0.836126  4.579129
Ni  0.941577  6.272838  9.958635
Ni  2.817836  4.354992  9.918532
Ni  2.807548  4.642820  6.319078
Ni  0.936122  4.475596  8.143017
Ni  4.651595  6.212063  9.935688
Ni  6.446545  4.489851  9.944814
Ni  6.467981  6.243719  8.124942
Ni  4.668546  4.471692  8.107776
Ni  0.975117 11.714605 11.731067
Ni  2.831880  8.077186  9.920680
Ni  2.887281  9.859575  8.098231
Ni  0.990781  8.050206  8.143074
Ni  6.388985  6.250482 11.772992
Ni  6.394572  9.889045  8.195119
Ni  6.403711  8.058808  9.992752
Ni  0.991792 13.504638  9.891123
Ni  2.774333 11.728140  9.918671
Ni  0.986401 11.643972  8.091531
Ni  6.428280 11.706062  9.968170
Ni  6.416364 13.503763  8.110470
Ni  4.638238 11.741672  8.146689
Ni  0.941742  2.661169  9.899316
Ni  4.631752  0.829136  8.105764
Ni  6.444024  0.842675  9.931555
Ni  6.467303  2.642152  8.107021
%endblock positions_abs_intermediate

kpoint_mp_grid 1 1 1

fix_com : false

