#######################################################
#CASTEP cell file: /home/u2093113/Documents/kART/barriers/CASTEP/castep.cell
#Created using the Atomic Simulation Environment (ASE)#
#######################################################

%BLOCK LATTICE_CART
14.464828  0.000000  0.000000
 0.000000 14.464828  0.000000
 0.000000  0.000000 14.464828
%ENDBLOCK LATTICE_CART

%BLOCK POSITIONS_ABS
Ni 13.599276  4.520977  9.934474
Al 13.637954  2.720842  8.133617
Ni 13.595241  8.241203  9.908622
Al 13.623008  6.363332  8.133153
Ni 13.597985 11.723606  9.900883
Al 13.691133  9.971442  8.047803
Ni 13.607679  0.897822  9.917369
Al 13.644573 13.558787  8.117489
Ni 11.832246  4.533660  0.858560
Al 13.617199  2.694624 11.726395
Ni 13.566315  8.204553 13.551365
Al 13.611619  6.374622 11.723178
Ni 13.575317 11.761776 13.575145
Al 13.715164  9.991962 11.747439
Ni 13.595072  0.857582 13.552195
Al 13.668130 13.545298 11.685626
Ni 13.602381  4.547455  2.674100
Al 13.648368  2.715184  0.868552
Ni 13.591523  8.139171  2.693778
Al 13.624341  6.358637  0.847354
Ni 13.620656 11.749561  2.717081
Al 13.674958  9.955608  0.934565
Ni 13.631390  0.926068  2.698446
Al 13.712948 13.562026  0.968121
Ni 13.591460  4.550888  6.332848
Al 13.663502  2.730719  4.500305
Ni 13.603119  8.149032  6.300749
Al 13.639492  6.345992  4.516032
Ni 13.609324 11.773375  6.279999
Al 13.642308  9.952262  4.496275
Ni 13.602720  0.903828  6.305706
Al 13.653852 13.572856  4.482739
Ni  0.888476  2.725097  9.919725
Ni  0.893979  4.509994  8.124061
Ni  2.743560  4.522801  9.851088
Ni  4.457446  2.598683  9.869785
Ni  4.526687  4.465981  8.050156
Ni  2.677536  2.666401  8.103319
Ni  6.302967  4.424220  9.849578
Ni  8.142583  2.628275  9.868083
Al 10.136629  0.933249  6.244933
Ni  6.291605  2.655355  8.051570
Ni  9.944045  4.501642  9.907575
Ni 11.803869  2.679963  9.928093
Ni  9.937422  8.201422  9.881602
Ni 10.003850  2.703226  8.093370
Ni  0.904366  6.331058  9.943536
Ni  0.905915  8.169665  8.182382
Ni  2.778110  8.160813  9.956335
Al  6.188501 13.559059  4.444752
Ni  4.545870  6.451044  6.456036
Ni  2.716591  6.368103  8.162016
Ni  6.324101  8.213905  9.856237
Al  8.147832  1.026920  4.422897
Al  2.529193  0.801702  9.833016
Al  2.797457 13.563079  4.473027
Ni  9.956409  9.986615 11.686772
Ni 11.855713  6.386793  9.924382
Ni 11.802279  8.204046  8.106897
Ni  8.136400  8.148423  8.082810
Ni  0.876321  9.967131  9.960360
Al  2.517867 10.047441  4.492605
Al  4.547448  0.854818  8.007722
Ni  4.527005 10.089800  9.923650
Al  0.763389 13.667751  6.265791
Ni  2.657151 10.023306  8.113194
Ni  6.341467 11.792298  9.869127
Ni  9.965100  9.962451  8.077183
Ni  8.148444 11.795762  8.027897
Al 10.042137 11.773000  6.321206
Ni  9.938602 11.818064  9.869059
Ni 11.808859  8.230097 11.718785
Ni 11.812177 11.766010  8.099938
Al  8.164449 11.711633  4.394259
Ni  0.805445 13.542472  9.901596
Ni  0.824837  0.909801  8.081279
Ni  2.628468 13.509944  8.058476
Ni  4.483579 13.527087  9.825596
Ni  2.612196 11.786510  6.305498
Ni  4.492924 13.549840  6.272252
Ni  6.321841  0.849353  9.853114
Ni  9.963933 13.615980  8.054895
Al  4.495092  8.340975  8.162863
Ni  6.350997 13.564026  8.005226
Ni  9.946793  0.863216  9.875847
Ni 11.794321 13.543785  9.916432
Ni 11.821370  0.900850  8.118519
Ni  8.182879 13.596207  6.172281
Al  2.553351  8.108048  6.321980
Ni  0.897254  4.526962 11.709445
Ni  2.691689  4.544176 13.517687
Ni  4.501941  2.697741 13.498355
Ni  4.557109  4.511355 11.667356
Ni  6.341132  4.493643 13.488765
Ni  8.158186  2.709988 13.544943
Al 10.107794  4.480596  6.286700
Ni  6.275250  2.617100 11.701991
Al  6.431202  8.158341  6.243862
Ni 11.837159  2.673952 13.530456
Ni 11.786837  4.518339 11.700324
Ni  9.996770  2.684520 11.701591
Al  4.497278  4.579767  4.692202
Ni  0.922590  8.146756 11.709751
Ni  2.741266  8.145102 13.445143
Ni  4.542188  6.361356 13.481118
Ni  6.390179  8.215885 13.555338
Ni  6.292769  6.341242 11.658676
Ni  8.114398  8.156830 11.662674
Ni  8.067969  6.315589  9.865033
Ni  9.910385  8.083609 13.514625
Ni 13.576710  4.536055 13.513328
Al  8.234904  0.985985  1.026396
Ni 11.770861  6.360462 13.484295
Ni  0.901382  9.964904 13.527376
Ni  0.876420 11.774872 11.750552
Ni  2.719868 11.807569 13.502374
Ni  4.582212 10.034436 13.532526
Al  0.881697 13.550076  2.576902
Ni  2.729558 10.003076 11.735504
Ni  6.353205 13.598009 11.720097
Al  6.325243  9.971287  0.917895
Ni  6.393088 10.064393 11.752503
Ni  9.945007 11.812902 13.572923
Al  4.462406  9.945562  2.709449
Ni 11.796163 11.784832 11.754732
Ni  8.156886 11.837543 11.723630
Ni  0.869714 13.610545 13.541158
Ni  0.884556  0.944641 11.745086
Ni  2.702591  0.941819 13.483337
Ni  4.523341 13.605763 13.550751
Al 10.064594  8.075867  2.797734
Ni  2.676719 13.583935 11.710023
Al  8.163234  8.041925  0.977540
Ni  8.213655 13.649894 13.583147
Ni  8.149366  0.906263 11.699710
Al  4.469713  6.434640  2.637793
Ni  9.970703  0.939267 13.573153
Al  1.039276  8.183796  0.846568
Ni 11.796690  0.854149 11.739453
Ni  0.918389  2.710292  2.684494
Al 10.117798  4.548099  2.709068
Ni  2.801062  4.557786  2.735906
Ni  2.715506  2.718809  4.496426
Ni  4.524344  4.543604  0.849319
Ni  2.701216  2.741422  0.858495
Al  9.967223  8.187563  6.228127
Al  8.042629  6.366192 13.419973
Al  8.003669  4.475075  0.928966
Ni  6.300195  2.692013  0.879765
Al  4.470180  2.685693  2.642729
Ni 11.862138  2.728919  2.683931
Al  0.939913  4.559101  1.038510
Ni 10.006919  2.769087  0.915517
Al  9.986597 13.598618 11.715706
Ni  0.918883  6.364400  2.702599
Al 11.737219 13.559865 13.652710
Ni  2.665556  8.198392  2.739728
Al  8.096703 13.519334  9.861272
Ni  4.493635  8.184434  0.845173
Ni  2.703546  6.353220  0.835068
Ni  6.304052  8.137354  2.701182
Al  6.369098  0.903158 13.568002
Al  4.533315  0.797077 11.654315
Ni  6.306692  6.350700  0.855435
Ni  8.144920  6.251922  2.705400
Ni 11.833299  6.342295  2.674385
Ni 11.764602  8.139326  0.871687
Ni  9.940904  6.260151  0.848371
Ni  0.814300  9.973217  2.629675
Ni  0.886547 11.769372  0.812118
Ni  2.679675 11.773114  2.654832
Al 11.626857  9.970059 13.544484
Ni  4.543426 11.779297  0.862011
Ni  2.725227  9.994524  0.855034
Ni  6.315907 11.751933  2.686275
Ni  8.166488  9.894504  2.668916
Ni  8.154051 11.761859  0.919945
Al  6.407101 11.957175 13.584580
Ni  9.981778 11.749557  2.698540
Ni 11.811003  9.942857  2.674663
Ni 11.793345 11.743603  0.909576
Ni  9.949790  9.901191  0.913146
Al  8.280912  9.970269 13.450541
Al  4.541233 11.833618 11.719779
Ni  0.858844  0.934685  0.853093
Ni  2.681529  0.896780  2.658361
Ni  4.484787 13.580200  2.651654
Ni  4.511153  0.926372  0.856244
Ni  2.695534 13.577018  0.852987
Ni  6.322861  0.942519  2.701051
Ni  8.145579 13.591809  2.753252
Al 10.056442  6.407968 11.565184
Ni  6.374260 13.630721  0.932347
Ni 10.004249  0.964377  2.743179
Ni 11.829735 13.566415  2.672974
Ni 11.804668  0.916066  0.915940
Ni  9.975609 13.597349  0.956566
Ni  0.889511  2.700311  6.277521
Ni  0.929906  4.515282  4.478051
Ni  2.667152  4.553072  6.350977
Ni  4.465619  2.692320  6.299566
Ni  6.189927  4.561613  2.727544
Ni  2.658335  0.876691  6.292316
Ni  6.335282  4.585131  6.369737
Ni  8.188621  2.736703  6.263107
Ni  8.141365  2.831851  2.723276
Ni  6.257193  2.756354  4.501991
Ni  9.996182  6.269046  4.539480
Ni 11.871690  2.716983  6.311112
Ni 11.868860  4.539290  4.505200
Ni 10.027922  2.779301  4.490307
Al  2.768784  6.276643 11.634382
Ni  0.851021  6.318890  6.341150
Ni  0.750548  8.145787  4.508834
Al  4.632030  8.295486 11.731937
Ni  4.453443  9.924516  6.257509
Al  0.846851  6.322195 13.443836
Al 10.079972  4.425820 13.534469
Ni  2.699134  6.361659  4.550065
Ni  6.360862  9.984620  8.035665
Ni  8.204214  6.287102  6.406265
Ni  8.176617  8.096750  4.467593
Ni  6.278389  6.365051  4.535160
Al  8.037790  4.368026 11.587497
Ni 11.799972  4.523177  8.151029
Ni 11.823526  8.138500  4.516745
Ni 11.784613  6.362809  6.362380
Ni  0.810484  9.970651  6.307457
Ni  0.863378 11.874619  4.474525
Al  2.734005  2.826071 11.667120
Al  0.886471  2.740176 13.552129
Al  8.097452  0.963238  8.003484
Ni  4.471728 11.718366  4.493995
Ni  4.457639  8.169020  4.534662
Ni  6.363527 11.748453  6.202807
Ni  8.194541  9.983027  6.246732
Al 11.669152 10.020468  9.917968
Ni  6.322723  9.941273  4.458640
Al  8.155278 10.020695  9.896062
Ni 11.812712  9.969027  6.300531
Ni 11.811260 11.769252  4.480792
Ni 10.015687  9.969216  4.478788
Al  4.562986 11.754435  7.998619
Ni  0.883034  0.886632  4.434665
Al  2.606344 11.798479  9.954714
Al  0.749664 11.710869  8.108057
Ni  4.500995  0.935295  4.484434
Al  8.054446  4.430759  8.148005
Al  8.011262  4.543912  4.522746
Ni  6.349342  0.901234  6.209802
Al 10.044551  6.379991  8.256516
Al  4.713867  6.245797  9.721264
Ni 10.015828 13.569901  4.478985
Ni 11.834709 13.561986  6.296350
Ni 11.842578  0.915364  4.468589
%ENDBLOCK POSITIONS_ABS

FIX_ALL_CELL: TRUE
KPOINT_MP_GRID: 1 1 1
